%mem=1000MW
%nprocshared=40
#p wB97XD/6-31g** nosymm pop=esp opt td=(triplet,nstates=2,root=1) scf=(MaxCycle=20000) iop(3/107=0001100000,3/108=0001100000) SCRF=(PCM,Solvent=Generic,Read)

 IT-4Cl opt-TDdft

0 1
C         -0.04175       -0.30626       -0.22052
C         -0.01939       -0.16164        1.17438
C          1.23490       -0.10348        1.80444
C          2.41613       -0.16606        1.06289
C          2.39734       -0.29606       -0.33607
C          1.14273       -0.36800       -0.95951
C         -1.33160       -0.19626        2.00174
C         -2.57214        0.18343        1.18352
C         -3.43741       -0.92168        1.05338
C         -2.90571       -2.07032        1.69359
C         -1.65562       -1.68419        2.29288
S         -4.90247       -0.58374        0.15907
C         -4.36014        1.07947       -0.05509
C         -3.10058        1.31942        0.56378
C         -4.92199        2.17711       -0.69987
C         -4.10701        3.32291       -0.59964
S         -2.62281        2.97732        0.33296
C         -0.89985       -2.60004        2.98647
C         -1.39469       -3.92467        3.09100
C         -2.64700       -4.31017        2.49636
C         -3.40082       -3.39506        1.79893
C         -0.85539       -5.07615        3.71883
C         -1.68734       -6.19856        3.53397
C         -2.94094       -5.81327        2.73833
S          0.58971       -5.39908        4.65103
C          0.08253       -7.08022        4.80152
C         -1.15771       -7.33509        4.15431
S         -1.61974       -9.01062        4.32438
C         -0.15056       -9.35709        5.26472
C          0.64289       -8.19189        5.41573
C         -4.30197        4.66215       -1.02872
C         -5.18397        5.21927       -1.95503
C         -5.90592        4.50523       -3.05268
C         -6.35999        5.56550       -3.99891
C         -6.02166        6.83133       -3.48687
C         -5.35846        6.65011       -2.16866
C         -7.01007        5.40228       -5.21205
C         -7.33161        6.54535       -5.95806
C         -6.99729        7.82090       -5.46085
C         -6.34732        7.97119       -4.22514
Cl        -8.13915        6.33962       -7.49642
Cl        -7.37718        9.27243       -6.36236
O         -6.07617        3.30315       -3.20758
C         -5.05652        7.67452       -1.26695
C         -5.18341        9.06723       -1.56535
N         -5.25190       10.21916       -1.74507
C         -1.31337        0.68680        3.27776
C         -0.65669        1.92874        3.28671
C         -0.70866        2.76332        4.40429
C         -1.42387        2.39888        5.55746
C         -2.09043        1.16457        5.53928
C         -2.04116        0.32652        4.42176
C         -3.03181       -6.50702        1.35448
C         -4.24916       -6.57257        0.65742
C         -4.31700       -7.12333       -0.62391
C         -3.17349       -7.62727       -1.26507
C         -1.95615       -7.54444       -0.57176
C         -1.88415       -6.99171        0.70951
C         -4.17209       -6.05073        3.65517
C         -4.83174       -7.29121        3.67105
C         -5.88361       -7.53701        4.55458
C         -6.31940       -6.55995        5.46530
C         -5.65107       -5.32663        5.45443
C         -4.59636       -5.07719        4.57175
C          0.26347      -10.58301        5.85264
C         -0.24306      -11.87853        5.88576
C         -1.42719      -12.38421        5.13954
C         -1.43958      -13.86067        5.31797
C         -0.36859      -14.23710        6.14840
C          0.35807      -13.01247        6.58559
C         -0.17043      -15.59370        6.41892
C         -1.04873      -16.53726        5.86271
C         -2.12554      -16.13919        5.04500
C         -2.32147      -14.77904        4.77004
C         -3.25682       -8.26339       -2.64129
C         -7.47554       -6.83389        6.41052
O         -2.23747      -11.73868        4.48669
C          1.37272      -12.99284        7.54645
C          1.91721      -14.16434        8.16118
N          2.41583      -15.07122        8.70208
Cl        -0.75885      -18.22638        6.21821
Cl        -3.23431      -17.30086        4.35147
C         -1.45259        3.30230        6.77737
C          3.68565       -0.33012       -1.13888
C          1.96777      -11.80776        8.08461
N          2.49114      -10.89084        8.58419
C         -4.65181        7.45829        0.08925
N         -4.34522        7.36394        1.21224
H         -7.26153        4.41654       -5.57888
H         -6.11023        8.96765       -3.88947
H         -3.61717        5.36648       -0.57224
H         -5.86861        2.18254       -1.21202
H          0.04197       -2.32800        3.44037
H         -4.34083       -3.66760        1.34148
H          1.57674       -8.19285        5.95914
H          1.20168      -10.44740        6.37267
H          0.63834      -15.95121        7.03467
H         -3.13973      -14.45531        4.14142
H         -2.58075       -0.61136        4.45509
H          3.36549       -0.11081        1.58612
H          1.30255       -0.00089        2.88019
H          1.07964       -0.47631       -2.03747
H         -0.98474       -0.37899       -0.74746
H         -2.66026        0.84584        6.40623
H         -0.18500        3.71330        4.37221
H         -0.08963        2.25171        2.42341
H         -5.15873       -6.20151        1.11258
H         -5.27842       -7.16182       -1.12608
H         -0.91910       -6.93926        1.19766
H         -1.04642       -7.91581       -1.03251
H         -4.10672       -4.11276        4.61350
H         -5.95010       -4.54494        6.14534
H         -6.36848       -8.50764        4.53165
H         -4.53642       -8.07472        2.98578
H         -1.64795        4.34117        6.49801
H         -2.22092        2.99402        7.48882
H         -0.48941        3.28137        7.29870
H          3.53728       -0.79130       -2.11745
H          4.06615        0.68382       -1.30546
H          4.46675       -0.88847       -0.61658
H         -7.35922       -7.80159        6.90630
H         -7.55491       -6.06640        7.18268
H         -8.42658       -6.85914        5.86764
H         -4.06313       -7.82860       -3.23624
H         -2.32290       -8.14192       -3.19469
H         -3.45176       -9.33843       -2.55785

  eps=4.88617
  epsinf=4.88617
  RSolv=8.36
 
