%mem=800MW
%nprocshared=64
#p wB97XD/6-31g** opt td=(triplet,nstates=3,root=2) pop=esp scf=(MaxCycle=20000) nosymm iop(3/107=0001000000,3/108=0001000000) SCRF=(PCM,Solvent=Generic,Read)

IT-4F

0  1
C          0.29399        0.18131       -0.01253
C          0.22249        0.12424        1.38918
C          1.42569        0.20131        2.10589
C          2.65250        0.31462        1.44746
C          2.72905        0.36466        0.04706
C          1.52173        0.29723       -0.66722
C         -1.14820        0.10620        2.11642
C         -1.04836       -0.31310        3.58792
C         -1.36557        0.76894        4.43352
C         -1.67223        1.93488        3.68673
C         -1.59247        1.58168        2.29360
S         -1.32091        0.38042        6.13986
C         -0.87451       -1.27387        5.72392
C         -0.77360       -1.47307        4.31982
C         -0.61017       -2.40866        6.47940
C         -0.29193       -3.53591        5.67987
S         -0.32601       -3.12022        3.95086
C         -2.01257        3.24816        4.09998
C         -2.27648        4.18239        3.12584
C         -2.21582        3.82403        1.73324
C         -1.86804        2.51282        1.31984
C         -2.63238        5.68191        3.30140
C         -2.77468        6.08909        1.82975
C         -2.54721        4.98302        0.98632
S         -2.73134        5.33329       -0.71893
C         -3.11857        7.00286       -0.30640
C         -3.09769        7.23552        1.09617
S         -3.47369        8.90171        1.46009
C         -3.65577        9.27588       -0.26916
C         -3.42901        8.12420       -1.06441
C         -0.02949       -4.79290        6.29099
C          0.30247       -6.06173        5.82632
C          0.58271       -6.43357        4.41231
C          0.99354       -7.85988        4.41924
C          0.94996       -8.34874        5.73863
C          0.49795       -7.25651        6.64588
C          1.36912       -8.64191        3.33222
C          1.71514       -9.96589        3.58334
C          1.67601      -10.47279        4.89138
C          1.29688       -9.68554        5.97751
O          0.50660       -5.72061        3.41898
C          0.28538       -7.41047        8.02001
C          0.54777       -8.61767        8.74143
N          0.74112       -9.56058        9.40297
C         -2.22558       -0.78152        1.43963
C         -1.87703       -1.96997        0.77853
C         -2.85585       -2.81591        0.25284
C         -4.22261       -2.51644        0.37201
C         -4.56757       -1.33336        1.04455
C         -3.59134       -0.48425        1.57085
C         -4.00610        5.90242        3.99085
C         -4.31456        7.11779        4.62027
C         -5.57794        7.34238        5.17438
C         -6.58574        6.36828        5.11654
C         -6.27860        5.15902        4.47032
C         -5.01851        4.93155        3.91518
C         -1.43934        6.36776        4.01677
C         -1.35599        6.39509        5.41876
C         -0.24211        6.93591        6.06372
C          0.83739        7.46786        5.33936
C          0.75724        7.42413        3.93912
C         -0.35488        6.88156        3.29024
C         -3.96097       10.52046       -0.88558
C         -4.23629       11.80413       -0.42570
C         -4.51180       12.97347       -1.25866
C         -4.93409       14.07630       -0.35087
C         -4.83842       13.63315        0.98194
C         -4.38404       12.21958        0.99650
C         -5.14360       14.44019        2.07265
C         -5.56827       15.73921        1.81152
C         -5.67733       16.19698        0.48937
C         -5.36396       15.38646       -0.60069
C         -7.94981        6.59693        5.74282
C          2.02733        8.09433        6.04408
C         -4.36751       13.10122       -2.64398
C         -4.70429       14.28108       -3.37948
N         -4.96167       15.20177       -4.05039
O         -4.18668       11.54598        2.00041
C         -5.28038       -3.43033       -0.22048
C          4.06621        0.46283       -0.66550
C         -3.83348       12.09708       -3.51230
N         -3.39691       11.33828       -4.28592
C         -0.23600       -6.40494        8.89413
N         -0.66334       -5.64674        9.67356
F         -5.88132       16.56909        2.82187
F         -6.09710       17.45592        0.27288
H         -5.05748       14.08227        3.08989
H         -5.47416       15.80714       -1.58707
H         -3.98809       10.40507       -1.96023
H         -3.49123        8.14447       -2.14278
H         -2.06221        3.49674        5.15008
H         -1.82139        2.26391        0.26966
H         -0.64760       -2.45682        7.55804
H         -0.11547       -4.70660        7.36491
H          1.29047      -10.14554        6.95225
F          2.01478      -11.75756        5.09769
F          2.09037      -10.77440        2.57677
H          1.39568       -8.24605        2.32581
H         -4.83465        3.98627        3.42050
H         -0.21929        6.94379        7.14894
H         -2.16470        6.00230        6.02208
H          1.57131        7.81775        3.33898
H         -0.36253        6.86116        2.20768
H         -7.03203        4.38121        4.39646
H         -5.77316        8.29489        5.65612
H         -3.56901        7.89850        4.69374
H         -0.60931        0.12872       -0.60735
H          1.53379        0.33577       -1.75191
H          1.42073        0.17977        3.18833
H          3.56075        0.36690        2.03932
H         -3.90886        0.41083        2.09114
H         -5.61288       -1.06820        1.16724
H         -2.54417       -3.72456       -0.25204
H         -0.83656       -2.24440        0.66469
H         -8.13770        7.65789        5.91896
H         -8.74974        6.21332        5.10413
H         -8.02659        6.08234        6.70705
H          2.93911        8.00649        5.44896
H          1.85295        9.16138        6.22210
H          2.20988        7.62625        7.01419
H         -5.01346       -4.48263       -0.09502
H         -6.25469       -3.27195        0.24650
H         -5.39563       -3.24791       -1.29474
H          3.96283        0.92398       -1.65016
H          4.78244        1.05302       -0.08885
H          4.50318       -0.53146       -0.81114
                                                 
  eps=4.73931                                      
  epsinf=4.73931                                   
  RSolv=8.25                                       
 
