%mem=800MW
%nprocshared=64
#p wB97XD/6-31g** opt td=(triplet,nstates=2,root=1) pop=esp scf=(MaxCycle=20000) nosymm iop(3/107=0000400000,3/108=0000400000) SCRF=(PCM,Solvent=Generic,Read)

IEICO-4F

0  1
C         12.31416       -0.82275        9.78693
C         12.68829        0.05261        8.76038
C         13.98492       -0.03770        8.22402
C         14.91971       -0.97151        8.65899
C         14.53428       -1.84064        9.67527
C         13.24897       -1.75718       10.23028
C         14.15160        1.00336        7.17523
C         12.86492        1.74082        7.09492
C         11.94758        1.14260        8.05581
C         12.58535        2.82556        6.25967
C         13.30683        3.55338        5.28524
C         12.69633        4.63228        4.59840
C         13.51820        5.25875        3.66918
C         14.83092        4.69364        3.59648
S         14.96645        3.34115        4.72966
C         15.91860        5.08602        2.79243
C         17.21871        4.50288        2.77882
C         18.08012        5.12067        1.89010
C         17.48925        6.18715        1.18416
S         15.82659        6.43837        1.62770
C         18.40993        6.79255        0.29347
C         19.65073        6.07240        0.40629
C         19.53200        4.91576        1.43420
C         20.75392        6.46116       -0.31780
C         20.62589        7.57751       -1.18598
C         19.37808        8.28265       -1.31727
C         18.27940        7.90376       -0.58118
C         19.50796        9.46500       -2.31347
C         20.99519        9.33640       -2.67595
C         21.56569        8.22438       -2.02603
S         23.23801        7.99445       -2.44592
C         23.17910        9.42243       -3.51938
C         21.87934       10.00640       -3.50170
C         18.69578        9.26815       -3.62254
C         18.54945       10.33791       -4.52454
C         17.90643       10.16716       -5.74988
C         17.38150        8.91980       -6.13347
C         17.53202        7.85575       -5.23425
C         18.17957        8.02327       -4.00437
C         16.67201        8.74716       -7.46512
C         19.16023       10.77725       -1.56513
C         17.84606       11.26941       -1.54306
C         17.51523       12.41145       -0.80839
C         18.48006       13.10579       -0.06219
C         19.79177       12.60397       -0.07807
C         20.12545       11.46235       -0.81031
C         24.28676        9.86677       -4.26651
S         24.17595       11.28936       -5.31367
C         25.85258       11.12230       -5.83141
C         26.44942       10.00313       -5.19869
C         25.60387        9.31158       -4.33935
C         19.62498        3.50481        0.79187
C         19.43764        3.29817       -0.58177
C         19.44370        2.00987       -1.12663
C         19.63134        0.87636       -0.32222
C         19.80295        1.08584        1.05673
C         19.79725        2.36976        1.60326
C         20.57733        5.14859        2.55512
C         20.29286        5.96303        3.66214
C         21.26252        6.22431        4.63355
C         22.55798        5.69183        4.53655
C         22.84344        4.88962        3.42050
C         21.87552        4.62469        2.44843
C         26.59660       11.91576       -6.73520
C         26.32959       13.04710       -7.51108
C         25.03579       13.77237       -7.58943
C         25.21320       14.86054       -8.58696
C         26.52699       14.81815       -9.08598
C         27.26609       13.70935       -8.40941
C         26.91449       15.74665      -10.05952
C         25.97492       16.68258      -10.49000
C         24.67171       16.71637       -9.97296
C         24.27355       15.79540       -9.00864
O         25.88679        8.22321       -3.60354
C         27.20896        7.65582       -3.67067
O         24.00451       13.54003       -6.96833
C         28.61857       13.42602       -8.62677
C         29.36907       12.40664       -7.95877
N         30.05811       11.60587       -7.46039
C         18.11795       14.33628        0.75148
C         19.68081       -0.52010       -0.91717
C         23.61443        5.99417        5.58532
O         13.21674        6.29580        2.86921
C         11.89954        6.87452        2.93627
C         10.60977        1.46558        8.30584
C          9.79407        0.81503        9.28542
N          9.06127        0.34053       10.06099
O         15.17072        1.19616        6.52147
C         29.45277       14.14026       -9.54439
N         30.20091       14.66746      -10.26966
C          9.85766        2.47039        7.61771
N          9.16790        3.26302        7.10746
H         15.91076       -1.03156        8.22947
H         11.34568       -0.81794       10.26024
H         11.67551        4.91964        4.79854
H         11.89543        7.66970        2.19557
H         11.71269        7.29238        3.92738
H         11.13898        6.13320        2.68404
H         17.48443        3.67061        3.41216
H         19.28169        4.13866       -1.24554
H         19.29893        1.89390       -2.19613
H         19.94373        0.23677        1.71831
H         19.93605        2.48206        2.67138
H         19.30954        6.40104        3.78016
H         20.99879        6.85142        5.47953
H         22.14018        3.99078        1.61121
H         23.83199        4.45620        3.30495
H         21.15013       11.11250       -0.78729
H         20.56980       13.11002        0.48502
H         17.06852       10.77145       -2.10903
H         16.48888       12.76487       -0.82529
H         18.93605       11.31774       -4.27225
H         17.81534       11.01844       -6.41736
H         18.27701        7.16610       -3.35108
H         17.14240        6.87491       -5.48821
H         17.33962        8.43210       -0.65829
H         21.69819        5.94249       -0.23090
H         21.63335       10.88303       -4.08056
H         17.94560       14.07294        1.80116
H         17.20784       14.81024        0.37773
H         18.91867       15.07970        0.72983
H         15.70955        9.27004       -7.46672
H         16.47868        7.69521       -7.68381
H         17.26592        9.15863       -8.28637
H         27.47818        9.73552       -5.38540
H         27.89654       15.78252      -10.50238
H         23.26881       15.81656       -8.60826
H         27.19539        6.80897       -2.98967
H         27.95654        8.38037       -3.34206
H         27.42902        7.31225       -4.68328
H         19.13241       -0.57563       -1.86008
H         19.25772       -1.26106       -0.23444
H         20.71602       -0.81683       -1.12069
H         23.17298        6.08989        6.58029
H         24.12412        6.93845        5.36250
H         24.37543        5.21195        5.62619
H         11.59024        3.23344        6.36295
H         27.59757       11.52176       -6.83523
F         23.81064       17.64765      -10.42089
F         26.32474       17.58212      -11.42694
F         12.91226       -2.60706       11.21693
F         15.39034       -2.76929       10.13813

 eps=4.99
 epsinf=4.99
 RSolv=7.92
 
