%mem=1000MW
%nprocshared=40
%Oldchk=Y6-TDDFT-scan-90-S1.chk
%chk=Y6-NTO-scan-90-S1.chk
#p wB97XD/6-31g** Geom=AllCheck Guess=(Read,Only) Density=(Check,Transition=1) Pop=(Minimal,NTO,SaveNTO)

0 1
