%mem=700MW
%nprocshared=16
#p wB97XD/6-31g** td=(nstates=1) scf=(MaxCycle=20000,verytight) iop(3/107=0016000000,3/108=0016000000) nosymm pop=esp SCRF=(PCM,Solvent=Generic,Read)

 Y6

0  1
C       -0.701350000     -0.562418000     -0.089346000
C       -0.569263000     -0.630175000      1.303341000
C        0.712780000     -0.722396000      1.875554000
C        1.874294000     -0.777361000      1.109730000
C        1.731934000     -0.717313000     -0.270264000
C        0.458510000     -0.600908000     -0.855787000
C       -1.577904000     -0.641932000      2.391812000
C       -0.845006000     -0.511787000      3.662791000
C        0.600700000     -0.716190000      3.355910000
C       -1.393770000     -0.078085000      4.849920000
C       -0.880658000      0.146001000      6.164880000
S        0.706994000     -0.374568000      6.763067000
C        0.321579000      0.201332000      8.348778000
C       -0.955154000      0.791577000      8.396693000
C       -1.651665000      0.773802000      7.175881000
S       -1.373449000      1.443419000      9.990579000
C        0.186576000      0.924566000     10.580602000
C        0.976204000      0.292178000      9.596364000
N        2.181676000     -0.097175000     10.139123000
C        2.184416000      0.316096000     11.472109000
C        0.913933000      0.916434000     11.775208000
C        3.195084000      0.272953000     12.461413000
C        2.866467000      0.561494000     13.836482000
C        1.558329000      1.058264000     14.176599000
C        0.596744000      1.300071000     13.125430000
N        4.553930000     -0.027401000     12.376103000
C        5.060744000      0.001945000     13.658529000
C        4.029424000      0.354746000     14.572420000
C        6.302739000     -0.167788000     14.280931000
C        6.215720000      0.036935000     15.675828000
S        4.586611000      0.465886000     16.224291000
C        7.423410000     -0.147903000     16.382951000
C        8.469954000     -0.427865000     15.497431000
S        7.927488000     -0.601664000     13.829563000
N       -0.546374000      1.822285000     13.553308000
S       -0.404914000      1.988616000     15.193721000
N        1.127671000      1.394854000     15.385958000
C        9.849871000     -0.826951000     15.831432000
C       10.867348000      0.028360000     16.166346000
C       12.197206000     -0.248972000     16.669816000
C       12.835455000      1.044573000     16.967503000
C       11.969540000      2.104639000     16.605834000
C       10.721197000      1.529391000     16.059129000
C       12.300294000      3.445175000     16.758500000
C       13.546906000      3.746863000     17.298395000
C       14.421014000      2.713824000     17.660716000
C       14.092600000      1.368174000     17.504657000
F       15.621527000      3.039374000     18.177166000
F       13.925836000      5.031054000     17.475475000
C       12.794461000     -1.530042000     16.843129000
C       14.049780000     -1.740822000     17.473874000
N       15.074639000     -1.971979000     17.992170000
O        9.762292000      2.142876000     15.612119000
C        7.579943000     -0.014734000     17.875890000
C        5.419123000      0.110372000     11.193445000
C        3.003582000     -1.160099000      9.538278000
C       -3.035609000      1.350668000      6.997666000
O        1.526985000     -0.829634000      4.145475000
C       -2.931668000     -0.865533000      2.225866000
C       -3.567847000     -0.988644000      0.947697000
N       -4.144789000     -1.092383000     -0.059589000
F        2.807538000     -0.759451000     -1.066930000
F        0.371638000     -0.523071000     -2.190120000
C       12.213915000     -2.742518000     16.384433000
N       11.784486000     -3.769927000     16.018738000
C       -3.847736000     -1.082779000      3.307233000
N       -4.641310000     -1.294720000      4.134072000
H       14.818935000      0.629621000     17.806017000
H       11.619454000      4.234749000     16.469105000
H        9.963060000     -1.889315000     16.011505000
H        6.794088000     -0.565356000     18.398703000
H        7.517043000      1.033468000     18.180453000
H        8.543320000     -0.403343000     18.201797000
H        6.269096000      0.738544000     11.454161000
H        4.872406000      0.614243000     10.402813000
H        5.777718000     -0.857793000     10.848118000
H        2.345085000     -1.882869000      9.059578000
H        3.546470000     -1.683132000     10.319128000
H        3.696815000     -0.758654000      8.801119000
H       -3.793468000      0.565538000      7.050556000
H       -3.144224000      1.868809000      6.044918000
H       -3.253502000      2.074848000      7.782440000
H       -2.441308000      0.187864000      4.789353000
H        2.853772000     -0.859660000      1.560837000
H       -1.646826000     -0.464073000     -0.599070000

eps=3.36
epsinf=3.36
RSolv=7.28

