%mem=700MW
%nprocshared=16
#p wB97XD/6-31g** td=(nstates=1) scf=(MaxCycle=20000,verytight) iop(3/107=0016000000,3/108=0016000000) nosymm pop=esp SCRF=(PCM,Solvent=Generic,Read)

 Y6

0  1
C       -0.874635000     -0.922791000     -0.112967000
C       -0.709096000     -0.845863000      1.275612000
C        0.589043000     -0.841019000      1.817139000
C        1.733573000     -0.926566000      1.030264000
C        1.558069000     -1.005385000     -0.345430000
C        0.268189000     -0.996168000     -0.903577000
C       -1.690584000     -0.785306000      2.389663000
C       -0.932223000     -0.557773000      3.627130000
C        0.511533000     -0.715599000      3.293610000
C       -1.465856000     -0.104057000      4.820080000
C       -0.929120000      0.167132000      6.111735000
S        0.697416000     -0.267727000      6.678047000
C        0.316625000      0.295244000      8.272374000
C       -0.989360000      0.826651000      8.342092000
C       -1.706926000      0.770319000      7.140552000
S       -1.406817000      1.458582000      9.946140000
C        0.184315000      1.006577000     10.507855000
C        0.985592000      0.412709000      9.503127000
N        2.217781000      0.074469000     10.027001000
C        2.222261000      0.481245000     11.361314000
C        0.927937000      1.024689000     11.688906000
C        3.245859000      0.468926000     12.331961000
C        2.929652000      0.718721000     13.715121000
C        1.609143000      1.161708000     14.081118000
C        0.619942000      1.380792000     13.048479000
N        4.615885000      0.209959000     12.223195000
C        5.135759000      0.228864000     13.498189000
C        4.110545000      0.527473000     14.431805000
C        6.396953000      0.078975000     14.105008000
C        6.324070000      0.241655000     15.497280000
S        4.691794000      0.610219000     16.078271000
C        7.548405000      0.056835000     16.193246000
C        8.580880000     -0.199578000     15.294257000
S        8.024122000     -0.306264000     13.619518000
N       -0.534543000      1.853614000     13.502650000
S       -0.371318000      2.003896000     15.143435000
N        1.185931000      1.465896000     15.301803000
C        9.979260000     -0.566896000     15.552145000
C       10.909747000      0.149955000     16.249470000
C       12.261518000     -0.249892000     16.649290000
C       12.899326000      0.917223000     17.268678000
C       12.009606000      2.018504000     17.256027000
C       10.739843000      1.610000000     16.619570000
C       12.330392000      3.262695000     17.788066000
C       13.589751000      3.417758000     18.354818000
C       14.488684000      2.338442000     18.378281000
C       14.169643000      1.092587000     17.849903000
F       15.698055000      2.525640000     18.936613000
F       13.963677000      4.598378000     18.886163000
C       12.844527000     -1.530375000     16.501734000
C       14.194722000     -1.830137000     16.838898000
N       15.296846000     -2.132423000     17.090958000
O        9.773628000      2.324369000     16.400722000
C        7.685162000      0.112219000     17.691896000
C        5.456107000      0.422455000     11.033633000
C        3.064747000     -0.968081000      9.424490000
C       -3.117958000      1.282680000      6.981782000
O        1.464703000     -0.718518000      4.060489000
C       -3.050912000     -1.018857000      2.264156000
C       -3.713788000     -1.212645000      1.009619000
N       -4.315453000     -1.370091000      0.023344000
F        2.617388000     -1.085573000     -1.162291000
F        0.145086000     -1.060197000     -2.236645000
C       12.157091000     -2.675960000     16.011766000
N       11.646644000     -3.654660000     15.620779000
C       -3.949805000     -1.169609000      3.369358000
N       -4.735406000     -1.332720000      4.215394000
H       14.911562000      0.311806000     17.907031000
H       11.628359000      4.085949000     17.768229000
H       10.248783000     -1.549202000     15.183316000
H        6.879263000     -0.449006000     18.171578000
H        7.638555000      1.143533000     18.049291000
H        8.632371000     -0.315761000     18.016278000
H        6.256802000      1.115786000     11.287025000
H        4.861280000      0.881339000     10.250399000
H        5.885258000     -0.513174000     10.678862000
H        2.424118000     -1.731816000      8.986097000
H        3.656886000     -1.444301000     10.199573000
H        3.715767000     -0.555634000      8.655535000
H       -3.837262000      0.461159000      7.008897000
H       -3.250836000      1.823296000      6.044212000
H       -3.371326000      1.970553000      7.788149000
H       -2.523825000      0.121145000      4.781652000
H        2.725100000     -0.930760000      1.462288000
H       -1.833923000     -0.915141000     -0.605673000

eps=3.36
epsinf=3.36
RSolv=7.28

