%mem=700MW
%nprocshared=16
#p wB97XD/6-31g** td=(nstates=1) scf=(MaxCycle=20000,verytight) iop(3/107=0016000000,3/108=0016000000) nosymm pop=esp SCRF=(PCM,Solvent=Generic,Read)

 Y6

0  1
C       -0.925207000     -1.037499000     -0.116685000
C       -0.749874000     -0.896311000      1.265576000
C        0.554305000     -0.846270000      1.790909000
C        1.692234000     -0.940964000      0.997444000
C        1.506416000     -1.079132000     -0.373311000
C        0.212319000     -1.122172000     -0.915881000
C       -1.720244000     -0.803589000      2.388004000
C       -0.955442000     -0.545339000      3.608599000
C        0.486668000     -0.675098000      3.263473000
C       -1.484769000     -0.101301000      4.814026000
C       -0.941834000      0.165387000      6.099872000
S        0.703067000     -0.227392000      6.647904000
C        0.320755000      0.309763000      8.254449000
C       -1.000592000      0.805443000      8.338462000
C       -1.727408000      0.737051000      7.146548000
S       -1.417146000      1.418789000      9.952377000
C        0.189977000      1.001882000     10.497078000
C        0.996155000      0.433765000      9.477823000
N        2.240078000      0.117660000      9.989472000
C        2.247320000      0.513787000     11.328903000
C        0.942146000      1.028061000     11.669964000
C        3.276738000      0.515340000     12.289650000
C        2.966703000      0.753842000     13.677872000
C        1.641600000      1.170104000     14.057328000
C        0.638629000      1.372141000     13.034006000
N        4.649781000      0.272088000     12.170765000
C        5.177922000      0.290251000     13.444803000
C        4.154222000      0.574556000     14.384878000
C        6.439797000      0.141792000     14.045089000
C        6.373671000      0.302225000     15.442614000
S        4.738060000      0.648132000     16.030704000
C        7.594472000      0.133771000     16.132493000
C        8.634844000     -0.131058000     15.226520000
S        8.064529000     -0.231777000     13.546464000
N       -0.521034000      1.819538000     13.500135000
S       -0.346538000      1.967981000     15.140576000
N        1.223630000      1.461512000     15.282928000
C       10.023028000     -0.439174000     15.461052000
C       10.901257000      0.194532000     16.316950000
C       12.245034000     -0.240532000     16.678106000
C       12.918090000      0.893298000     17.349211000
C       12.016035000      1.972869000     17.451081000
C       10.719105000      1.595190000     16.832610000
C       12.347761000      3.180574000     18.053038000
C       13.632556000      3.310265000     18.570702000
C       14.544014000      2.247573000     18.478497000
C       14.209468000      1.036494000     17.877041000
F       15.776079000      2.411137000     18.988424000
F       14.016906000      4.453927000     19.163407000
C       12.784351000     -1.522002000     16.498327000
C       14.131122000     -1.870274000     16.816174000
N       15.224244000     -2.212084000     17.047791000
O        9.743037000      2.319832000     16.715563000
C        7.716443000      0.144506000     17.632545000
C        5.478331000      0.517496000     10.979413000
C        3.096484000     -0.911921000      9.378449000
C       -3.150332000      1.213907000      6.987838000
O        1.449788000     -0.630795000      4.018305000
C       -3.089742000     -1.027084000      2.274250000
C       -3.763712000     -1.226564000      1.028633000
N       -4.375918000     -1.386254000      0.048096000
F        2.561730000     -1.169879000     -1.197026000
F        0.075663000     -1.248922000     -2.244502000
C       12.039178000     -2.642226000     16.019230000
N       11.484244000     -3.601310000     15.647553000
C       -3.983435000     -1.156849000      3.383844000
N       -4.769115000     -1.303622000      4.234118000
H       14.961390000      0.263974000     17.839266000
H       11.638876000      3.994947000     18.123411000
H       10.413702000     -1.248038000     14.854193000
H        6.888777000     -0.407547000     18.084647000
H        7.695230000      1.165817000     18.018122000
H        8.646175000     -0.319669000     17.957748000
H        6.263263000      1.228408000     11.234270000
H        4.868112000      0.968109000     10.203219000
H        5.928046000     -0.403832000     10.612553000
H        2.463968000     -1.684955000      8.944225000
H        3.703028000     -1.379928000     10.147525000
H        3.734921000     -0.489341000      8.604325000
H       -3.823578000      0.385579000      6.760454000
H       -3.233411000      1.950155000      6.185134000
H       -3.509251000      1.684875000      7.902139000
H       -2.545429000      0.112781000      4.786322000
H        2.687368000     -0.907921000      1.420111000
H       -1.888273000     -1.075378000     -0.600362000

eps=3.36
epsinf=3.36
RSolv=7.28

