%mem=700MW
%nprocshared=16
#p wB97XD/6-31g** td=(nstates=1) scf=(MaxCycle=20000,verytight) iop(3/107=0016000000,3/108=0016000000) nosymm pop=esp SCRF=(PCM,Solvent=Generic,Read)

 Y6

0  1
C       -0.957962000     -1.094860000     -0.120215000
C       -0.778329000     -0.938633000      1.259816000
C        0.527845000     -0.867398000      1.778021000
C        1.662973000     -0.953321000      0.980062000
C        1.472755000     -1.105047000     -0.389033000
C        0.177105000     -1.171026000     -0.924375000
C       -1.744251000     -0.848250000      2.386246000
C       -0.978044000     -0.578506000      3.601272000
C        0.463981000     -0.688410000      3.249981000
C       -1.508013000     -0.141528000      4.811091000
C       -0.963409000      0.129657000      6.094329000
S        0.689368000     -0.241615000      6.635012000
C        0.306536000      0.287719000      8.245322000
C       -1.021481000      0.765549000      8.334835000
C       -1.752084000      0.690078000      7.146483000
S       -1.438779000      1.373955000      9.951148000
C        0.177491000      0.982240000     10.487893000
C        0.986069000      0.422882000      9.464301000
N        2.237591000      0.126734000      9.969455000
C        2.247545000      0.528829000     11.307757000
C        0.936418000      1.024516000     11.655155000
C        3.284087000      0.554870000     12.259176000
C        2.982034000      0.801528000     13.648519000
C        1.653074000      1.197758000     14.035921000
C        0.638147000      1.373609000     13.019319000
N        4.659564000      0.332596000     12.129848000
C        5.199001000      0.373037000     13.399818000
C        4.178636000      0.650166000     14.346023000
C        6.466599000      0.249572000     13.989776000
C        6.411563000      0.427236000     15.388480000
S        4.773872000      0.750065000     15.986437000
C        7.636687000      0.289824000     16.068781000
C        8.682034000      0.037706000     15.152823000
S        8.088684000     -0.110243000     13.479286000
N       -0.525132000      1.804645000     13.491457000
S       -0.339921000      1.969890000     15.129294000
N        1.240276000      1.492227000     15.262540000
C       10.065713000     -0.248454000     15.363697000
C       10.924892000      0.278144000     16.317492000
C       12.245998000     -0.222569000     16.664775000
C       12.937950000      0.833105000     17.443595000
C       12.059912000      1.921082000     17.618182000
C       10.769244000      1.634442000     16.936620000
C       12.409235000      3.065939000     18.323840000
C       13.686433000      3.118065000     18.873362000
C       14.574815000      2.045268000     18.707514000
C       14.221599000      0.897197000     18.000995000
F       15.801190000      2.134894000     19.247644000
F       14.085256000      4.197261000     19.567205000
C       12.749285000     -1.499204000     16.394086000
C       14.075947000     -1.916956000     16.717226000
N       15.150094000     -2.313038000     16.948522000
O        9.824679000      2.403793000     16.843040000
C        7.759607000      0.290273000     17.568417000
C        5.472834000      0.585603000     10.929397000
C        3.102385000     -0.897450000      9.361107000
C       -3.181359000      1.148887000      6.993155000
O        1.430319000     -0.625842000      3.999840000
C       -3.114932000     -1.079272000      2.277136000
C       -3.792235000     -1.278844000      1.034011000
N       -4.407577000     -1.438402000      0.055052000
F        2.525969000     -1.187667000     -1.217151000
F        0.035336000     -1.312039000     -2.251433000
C       11.980270000     -2.552092000     15.807786000
N       11.405808000     -3.460125000     15.349562000
C       -4.004013000     -1.216265000      3.388775000
N       -4.786594000     -1.369376000      4.241205000
H       14.956283000      0.112705000     17.907638000
H       11.719986000      3.890284000     18.449322000
H       10.490556000     -0.958934000     14.663293000
H        6.917357000     -0.242218000     18.016330000
H        7.768688000      1.308863000     17.960938000
H        8.676691000     -0.201467000     17.889853000
H        6.244809000      1.315144000     11.171064000
H        4.846708000      1.015990000     10.154453000
H        5.938621000     -0.329241000     10.566239000
H        2.478212000     -1.691369000      8.952872000
H        3.733518000     -1.337289000     10.126946000
H        3.717796000     -0.475970000      8.567933000
H       -3.845441000      0.311789000      6.770476000
H       -3.277310000      1.881991000      6.188896000
H       -3.542001000      1.617968000      7.907833000
H       -2.571187000      0.059781000      4.787804000
H        2.659536000     -0.903445000      1.397786000
H       -1.922854000     -1.151888000     -0.598532000

eps=3.36
epsinf=3.36
RSolv=7.28

