%mem=700MW
%nprocshared=16
#p wB97XD/6-31g** td=(nstates=1) scf=(MaxCycle=20000,verytight) iop(3/107=0016000000,3/108=0016000000) nosymm pop=esp SCRF=(PCM,Solvent=Generic,Read)

 Y6

0  1
C       -0.956193000     -1.202562000     -0.112944000
C       -0.780176000     -1.033089000      1.266035000
C        0.523515000     -0.913774000      1.781142000
C        1.659911000     -0.964927000      0.982030000
C        1.473148000     -1.130823000     -0.385854000
C        0.179750000     -1.244079000     -0.918515000
C       -1.746927000     -0.970495000      2.394108000
C       -0.988140000     -0.672339000      3.607080000
C        0.455806000     -0.728162000      3.251760000
C       -1.530505000     -0.262989000      4.821899000
C       -0.992336000      0.037376000      6.101082000
S        0.687064000     -0.222986000      6.625099000
C        0.287326000      0.284943000      8.238227000
C       -1.069001000      0.672256000      8.342153000
C       -1.805557000      0.546053000      7.162230000
S       -1.508033000      1.251042000      9.964369000
C        0.137361000      0.970712000     10.482416000
C        0.969463000      0.465226000      9.449080000
N        2.242571000      0.250323000      9.940044000
C        2.241733000      0.649954000     11.279063000
C        0.905023000      1.061540000     11.640762000
C        3.283044000      0.733298000     12.221734000
C        2.979083000      0.953118000     13.615724000
C        1.632505000      1.269714000     14.015967000
C        0.599599000      1.388194000     13.009015000
N        4.666969000      0.584382000     12.080616000
C        5.212474000      0.638475000     13.347618000
C        4.187063000      0.856127000     14.303682000
C        6.486967000      0.555341000     13.926865000
C        6.435159000      0.700622000     15.330893000
S        4.788771000      0.953806000     15.942501000
C        7.663115000      0.570723000     16.003057000
C        8.715450000      0.367183000     15.074060000
S        8.111182000      0.244038000     13.399092000
N       -0.583182000      1.746337000     13.493250000
S       -0.393614000      1.916105000     15.130092000
N        1.213651000      1.534087000     15.247421000
C       10.091508000      0.066264000     15.259558000
C       10.946388000      0.409239000     16.304568000
C       12.221092000     -0.219855000     16.599230000
C       12.961128000      0.669952000     17.527907000
C       12.154585000      1.784479000     17.830102000
C       10.869680000      1.685383000     17.082731000
C       12.560935000      2.793545000     18.694743000
C       13.820553000      2.674369000     19.274851000
C       14.637516000      1.572695000     18.981417000
C       14.226872000      0.560729000     18.116028000
F       15.849736000      1.497372000     19.555150000
F       14.269496000      3.615450000     20.122129000
C       12.644366000     -1.481029000     16.167608000
C       13.938977000     -2.021771000     16.433346000
N       14.984470000     -2.511882000     16.608552000
O        9.992358000      2.536266000     17.053855000
C        7.786242000      0.513636000     17.501009000
C        5.458748000      0.891269000     10.878203000
C        3.168932000     -0.705689000      9.313005000
C       -3.266064000      0.900088000      7.026688000
O        1.421199000     -0.624741000      3.998538000
C       -3.110542000     -1.241808000      2.284027000
C       -3.780195000     -1.464875000      1.040771000
N       -4.390767000     -1.645583000      0.062442000
F        2.527267000     -1.181836000     -1.215468000
F        0.040991000     -1.397121000     -2.244622000
C       11.812288000     -2.399683000     15.454468000
N       11.184084000     -3.207458000     14.891332000
C       -3.999569000     -1.398798000      3.392789000
N       -4.782556000     -1.569335000      4.241601000
H       14.906204000     -0.256555000     17.930346000
H       11.929011000      3.642272000     18.919908000
H       10.524651000     -0.540188000     14.471458000
H        6.907419000      0.031680000     17.934385000
H        7.877941000      1.513278000     17.929149000
H        8.664067000     -0.059041000     17.800039000
H        6.200274000      1.649557000     11.126220000
H        4.808155000      1.306151000     10.114869000
H        5.961226000      0.003585000     10.496873000
H        2.597181000     -1.535683000      8.899953000
H        3.834912000     -1.110721000     10.068147000
H        3.746549000     -0.233645000      8.519634000
H       -3.871629000      0.011698000      6.838087000
H       -3.430283000      1.603820000      6.207629000
H       -3.641962000      1.366656000      7.936545000
H       -2.602505000     -0.116009000      4.806813000
H        2.654655000     -0.877996000      1.398033000
H       -1.919065000     -1.295779000     -0.589647000

eps=3.36
epsinf=3.36
RSolv=7.28

