%mem=700MW
%nprocshared=16
#p wB97XD/6-31g** td=(nstates=1) scf=(MaxCycle=20000,verytight) iop(3/107=0016000000,3/108=0016000000) nosymm pop=esp SCRF=(PCM,Solvent=Generic,Read)

 Y6

0  1
C       -0.971777000     -1.225117000     -0.111381000
C       -0.794361000     -1.061293000      1.268033000
C        0.509535000     -0.939616000      1.781898000
C        1.644993000     -0.983078000      0.980987000
C        1.456883000     -1.143429000     -0.387374000
C        0.163169000     -1.258896000     -0.918768000
C       -1.759713000     -1.007566000      2.398008000
C       -1.000364000     -0.712043000      3.611059000
C        0.443177000     -0.760747000      3.253437000
C       -1.542898000     -0.310391000      4.828685000
C       -1.004166000     -0.009881000      6.107180000
S        0.678786000     -0.257043000      6.626510000
C        0.279925000      0.249287000      8.240392000
C       -1.079668000      0.625231000      8.348315000
C       -1.818703000      0.491857000      7.171213000
S       -1.517430000      1.204783000      9.970713000
C        0.132773000      0.941902000     10.482485000
C        0.965010000      0.439454000      9.447584000
N        2.242854000      0.240475000      9.933453000
C        2.244896000      0.649677000     11.269668000
C        0.905481000      1.048641000     11.635928000
C        3.291139000      0.756130000     12.204711000
C        2.993220000      0.989191000     13.598104000
C        1.644664000      1.289895000     14.004223000
C        0.603893000      1.383642000     13.002942000
N        4.676080000      0.628178000     12.056119000
C        5.229783000      0.710958000     13.318023000
C        4.207308000      0.923336000     14.278495000
C        6.509940000      0.665301000     13.887590000
C        6.466344000      0.834145000     15.290369000
S        4.818609000      1.061274000     15.910838000
C        7.699287000      0.745080000     15.955133000
C        8.756026000      0.563119000     15.018895000
S        8.134420000      0.376437000     13.352580000
N       -0.580882000      1.729527000     13.491202000
S       -0.383599000      1.917783000     15.125128000
N        1.229896000      1.560255000     15.235715000
C       10.134562000      0.292319000     15.188085000
C       10.970777000      0.514836000     16.287143000
C       12.211484000     -0.180211000     16.563678000
C       12.949374000      0.598940000     17.591065000
C       12.183010000      1.726453000     17.942649000
C       10.925398000      1.739529000     17.143279000
C       12.601152000      2.652236000     18.890754000
C       13.828608000      2.430351000     19.508837000
C       14.601252000      1.309015000     19.174073000
C       14.179765000      0.382727000     18.221894000
F       15.780266000      1.128840000     19.791969000
F       14.287539000      3.288858000     20.434654000
C       12.610584000     -1.412386000     16.034552000
C       13.882094000     -2.012493000     16.283694000
N       14.909175000     -2.546015000     16.440086000
O       10.094316000      2.636833000     17.133775000
C        7.825849000      0.701179000     17.452641000
C        5.455646000      0.923033000     10.843162000
C        3.173957000     -0.713230000      9.309714000
C       -3.282651000      0.832973000      7.039860000
O        1.409278000     -0.657318000      3.999309000
C       -3.122473000     -1.282997000      2.288303000
C       -3.793010000     -1.501819000      1.044747000
N       -4.404194000     -1.679433000      0.066248000
F        2.509974000     -1.186867000     -1.218669000
F        0.023057000     -1.406491000     -2.245335000
C       11.775061000     -2.238293000     15.219463000
N       11.143501000     -2.975460000     14.569887000
C       -4.009509000     -1.448858000      3.397377000
N       -4.790802000     -1.626648000      4.246240000
H       14.824986000     -0.454822000     18.007539000
H       12.003059000      3.515838000     19.150009000
H       10.587603000     -0.235625000     14.355498000
H        6.932601000      0.254558000     17.893593000
H        7.958253000      1.699922000     17.871487000
H        8.683918000      0.099058000     17.752956000
H        6.198293000      1.684764000     11.076120000
H        4.797642000      1.329704000     10.081691000
H        5.956346000      0.032189000     10.466977000
H        2.606953000     -1.551019000      8.906064000
H        3.846410000     -1.106836000     10.065151000
H        3.744090000     -0.243195000      8.509817000
H       -3.880284000     -0.060581000      6.850425000
H       -3.455232000      1.537095000      6.222842000
H       -3.660909000      1.293844000      7.951632000
H       -2.615782000     -0.169708000      4.815999000
H        2.640023000     -0.894497000      1.395964000
H       -1.934986000     -1.319645000     -0.587147000

eps=3.36
epsinf=3.36
RSolv=7.28

