%mem=700MW
%nprocshared=16
#p wB97XD/6-31g** td=(nstates=1) scf=(MaxCycle=20000,verytight) iop(3/107=0016000000,3/108=0016000000) nosymm pop=esp SCRF=(PCM,Solvent=Generic,Read)

 Y6

0  1
C       -1.002601000     -1.259911000     -0.108003000
C       -0.819226000     -1.098388000      1.270809000
C        0.486648000     -0.975727000      1.779217000
C        1.618623000     -1.016242000      0.973140000
C        1.424653000     -1.174596000     -0.394602000
C        0.128722000     -1.290763000     -0.920530000
C       -1.779769000     -1.047966000      2.405354000
C       -1.015189000     -0.752207000      3.615250000
C        0.426656000     -0.798547000      3.251206000
C       -1.552794000     -0.352348000      4.835548000
C       -1.009153000     -0.048510000      6.110810000
S        0.677883000     -0.284416000      6.622679000
C        0.284254000      0.225061000      8.236924000
C       -1.077640000      0.592557000      8.350268000
C       -1.821592000      0.450733000      7.177788000
S       -1.511667000      1.175247000      9.972198000
C        0.142562000      0.925510000     10.476359000
C        0.973708000      0.424192000      9.440061000
N        2.255541000      0.237933000      9.921575000
C        2.260620000      0.655095000     11.255260000
C        0.919556000      1.045210000     11.625334000
C        3.310368000      0.778363000     12.185035000
C        3.015455000      1.021662000     13.577147000
C        1.665892000      1.311280000     13.987786000
C        0.620051000      1.387084000     12.990859000
N        4.696338000      0.666164000     12.032214000
C        5.254633000      0.771294000     13.290788000
C        4.232762000      0.980123000     14.252801000
C        6.537783000      0.758709000     13.855516000
C        6.496126000      0.951465000     15.255999000
S        4.846428000      1.154361000     15.880225000
C        7.730636000      0.906144000     15.918159000
C        8.794494000      0.747576000     14.979625000
S        8.165591000      0.490171000     13.322061000
N       -0.566056000      1.724836000     13.481708000
S       -0.363372000      1.927054000     15.113355000
N        1.254216000      1.586550000     15.219186000
C       10.178396000      0.519452000     15.139544000
C       10.997556000      0.621693000     16.275679000
C       12.209188000     -0.128775000     16.522594000
C       12.930767000      0.528312000     17.645483000
C       12.195473000      1.655901000     18.056420000
C       10.975054000      1.784529000     17.211972000
C       12.604741000      2.483289000     19.094343000
C       13.790061000      2.156810000     19.746971000
C       14.528502000      1.030039000     19.358362000
C       14.116809000      0.203773000     18.313666000
F       15.665026000      0.744818000     20.015369000
F       14.240258000      2.916829000     20.759268000
C       12.602635000     -1.312289000     15.886970000
C       13.857870000     -1.954278000     16.111852000
N       14.873364000     -2.516105000     16.243358000
O       10.191124000      2.724035000     17.229266000
C        7.852854000      0.883597000     17.416151000
C        5.467065000      0.955873000     10.812393000
C        3.191919000     -0.711510000      9.299151000
C       -3.288443000      0.781899000      7.053499000
O        1.395799000     -0.694732000      3.993034000
C       -3.142017000     -1.325938000      2.301213000
C       -3.817272000     -1.546239000      1.060302000
N       -4.432346000     -1.725176000      0.084572000
F        2.473996000     -1.215134000     -1.230555000
F       -0.017155000     -1.436014000     -2.246665000
C       11.782161000     -2.038763000     14.969164000
N       11.163636000     -2.699830000     14.231002000
C       -4.024546000     -1.492934000      3.413887000
N       -4.802320000     -1.671695000      4.265669000
H       14.734024000     -0.644828000     18.062158000
H       12.030627000      3.349297000     19.395997000
H       10.650098000      0.064249000     14.274317000
H        6.945333000      0.472038000     17.861552000
H        8.018313000      1.882232000     17.822301000
H        8.689644000      0.256802000     17.726911000
H        6.206013000      1.724342000     11.034590000
H        4.802178000      1.351894000     10.051252000
H        5.971884000      0.065285000     10.441161000
H        2.630452000     -1.557250000      8.904493000
H        3.872117000     -1.093682000     10.053506000
H        3.753156000     -0.241767000      8.492842000
H       -3.880481000     -0.115532000      6.865120000
H       -3.469564000      1.486271000      6.238538000
H       -3.666054000      1.238282000      7.967789000
H       -2.626157000     -0.215232000      4.828318000
H        2.615356000     -0.926860000      1.383838000
H       -1.967682000     -1.354628000     -0.579875000

eps=3.36
epsinf=3.36
RSolv=7.28

