%mem=700MW
%nprocshared=16
#p wB97XD/6-31g** td=(nstates=1) scf=(MaxCycle=20000,verytight) iop(3/107=0016000000,3/108=0016000000) nosymm pop=esp SCRF=(PCM,Solvent=Generic,Read)

 Y6

0  1
C       -0.209205000     -0.097121000     -0.035604000
C       -0.118588000     -0.176033000      1.359230000
C        1.117600000      0.072368000      1.984951000
C        2.272280000      0.381321000      1.275057000
C        2.170778000      0.458498000     -0.110211000
C        0.943057000      0.226123000     -0.748593000
C       -1.121833000     -0.509449000      2.402157000
C       -0.493213000     -0.289856000      3.701567000
C        0.953881000     -0.038407000      3.457866000
C       -1.172775000     -0.155808000      4.907585000
C       -0.774190000      0.022433000      6.258767000
S        0.877531000     -0.147223000      6.893389000
C        0.301482000      0.075188000      8.518215000
C       -1.091633000      0.315460000      8.546793000
C       -1.717130000      0.291575000      7.297503000
S       -1.716453000      0.615791000     10.182595000
C       -0.097103000      0.419652000     10.809861000
C        0.862742000      0.144685000      9.801453000
N        2.108475000     -0.017562000     10.375953000
C        1.959254000      0.190559000     11.750341000
C        0.562573000      0.421473000     12.036470000
C        2.908049000      0.246529000     12.787676000
C        2.473228000      0.258909000     14.164479000
C        1.073991000      0.392211000     14.475745000
C        0.116362000      0.535966000     13.400297000
N        4.306683000      0.250181000     12.757481000
C        4.742067000      0.195574000     14.066389000
C        3.626358000      0.197774000     14.943462000
C        5.969300000      0.161024000     14.746177000
C        5.788592000      0.151755000     16.147447000
S        4.079962000      0.164603000     16.631466000
C        6.975018000      0.117401000     16.892613000
C        8.111381000      0.128027000     16.039263000
S        7.653462000      0.143356000     14.327283000
N       -1.132451000      0.713479000     13.813221000
S       -1.091322000      0.692505000     15.469368000
N        0.534158000      0.456986000     15.686691000
C        9.434820000     -0.135387000     16.516398000
C       10.689911000      0.240128000     16.065330000
C       11.959517000     -0.085279000     16.706900000
C       12.994492000      0.801181000     16.120217000
C       12.421780000      1.531132000     15.060167000
C       10.981832000      1.182968000     14.943467000
C       13.147817000      2.425183000     14.282545000
C       14.492822000      2.601353000     14.592069000
C       15.075780000      1.894195000     15.654348000
C       14.348601000      0.988991000     16.424824000
F       16.373544000      2.100033000     15.930171000
F       15.248433000      3.454332000     13.880790000
C       12.198022000     -1.096370000     17.641278000
C       13.461846000     -1.314990000     18.270355000
N       14.465305000     -1.538234000     18.824320000
O       10.206838000      1.614249000     14.101324000
C        7.050457000      0.081917000     18.399802000
C        5.152320000      0.786616000     11.678302000
C        3.175069000     -0.790473000      9.719143000
C       -3.192295000      0.523072000      7.079055000
O        1.848804000      0.082859000      4.284970000
C       -2.389329000     -1.035459000      2.153912000
C       -2.955515000     -1.167850000      0.848094000
N       -3.478192000     -1.293157000     -0.188128000
F        3.245802000      0.761305000     -0.855307000
F        0.885621000      0.321134000     -2.086044000
C       11.230159000     -2.074072000     18.029861000
N       10.496361000     -2.915314000     18.373266000
C       -3.244964000     -1.582344000      3.160946000
N       -3.983088000     -2.073165000      3.920497000
H       14.857702000      0.479346000     17.227954000
H       12.694672000      2.968744000     13.464364000
H        9.419880000     -0.607658000     17.490496000
H        7.318287000     -0.916754000     18.757009000
H        6.091956000      0.343134000     18.848051000
H        7.794058000      0.786606000     18.776039000
H        5.774272000      1.586974000     12.077148000
H        4.520983000      1.215668000     10.906709000
H        5.788045000      0.012104000     11.252135000
H        2.724553000     -1.597444000      9.142793000
H        3.810139000     -1.242951000     10.474288000
H        3.770922000     -0.162559000      9.058630000
H       -3.696746000     -0.398798000      6.782176000
H       -3.368479000      1.272654000      6.304838000
H       -3.669552000      0.880002000      7.991188000
H       -2.251259000     -0.159478000      4.814758000
H        3.217648000      0.559709000      1.769453000
H       -1.121452000     -0.260693000     -0.587452000

eps=3.36
epsinf=3.36
RSolv=7.28

