%mem=700MW
%nprocshared=16
#p wB97XD/6-31g** td=(nstates=1) scf=(MaxCycle=20000,verytight) iop(3/107=0016000000,3/108=0016000000) nosymm pop=esp SCRF=(PCM,Solvent=Generic,Read)

 Y6

0  1
C       -0.145480000     -0.302572000      0.000023000
C       -0.079796000     -0.399545000      1.395781000
C        1.175196000     -0.441536000      2.030551000
C        2.374676000     -0.415701000      1.324306000
C        2.298472000     -0.325712000     -0.059450000
C        1.051674000     -0.261215000     -0.706391000
C       -1.139487000     -0.496036000      2.430325000
C       -0.479162000     -0.374995000      3.740636000
C        0.989257000     -0.486892000      3.503019000
C       -1.111008000     -0.022157000      4.914114000
C       -0.681344000      0.168107000      6.262504000
S        0.900515000     -0.281322000      6.927196000
C        0.394365000      0.198401000      8.511349000
C       -0.918607000      0.708805000      8.510450000
C       -1.545280000      0.701264000      7.254181000
S       -1.462989000      1.259474000     10.105412000
C        0.088938000      0.800666000     10.762145000
C        0.970030000      0.264302000      9.797308000
N        2.162338000     -0.086342000     10.393700000
C        2.062654000      0.254130000     11.742875000
C        0.744266000      0.769757000     11.996850000
C        3.011378000      0.202431000     12.789786000
C        2.583921000      0.382317000     14.155037000
C        1.234478000      0.797111000     14.438515000
C        0.327687000      1.059198000     13.343626000
N        4.384839000     -0.044911000     12.774890000
C        4.804409000     -0.091881000     14.087129000
C        3.704655000      0.162436000     14.952039000
C        6.008396000     -0.279850000     14.779470000
C        5.827277000     -0.161371000     16.172392000
S        4.148749000      0.156718000     16.640665000
C        7.008890000     -0.294805000     16.939737000
C        8.099998000     -0.557552000     16.112497000
S        7.679195000     -0.596390000     14.401958000
N       -0.863565000      1.501580000     13.727620000
S       -0.831076000      1.572772000     15.380734000
N        0.714559000      1.038837000     15.635470000
C        9.499859000     -0.796512000     16.514571000
C       10.565607000      0.040012000     16.306167000
C       11.986798000     -0.212499000     16.467066000
C       12.701568000      1.004032000     16.045619000
C       11.773180000      2.015088000     15.700337000
C       10.404439000      1.483310000     15.878877000
C       12.150728000      3.280883000     15.268489000
C       13.511801000      3.551543000     15.169519000
C       14.448620000      2.564595000     15.504476000
C       14.072233000      1.296433000     15.941090000
F       15.757871000      2.859626000     15.396681000
F       13.944015000      4.760810000     14.752486000
C       12.596400000     -1.408208000     16.937593000
C       14.002091000     -1.602929000     17.020865000
N       15.149509000     -1.820798000     17.108995000
O        9.356162000      2.092798000     15.723895000
C        7.092216000     -0.178981000     18.440345000
C        5.319534000      0.227367000     11.670323000
C        3.079357000     -1.069226000      9.794374000
C       -2.947221000      1.205239000      7.008119000
O        1.880398000     -0.570404000      4.335955000
C       -2.471604000     -0.774731000      2.187085000
C       -3.039733000     -0.870322000      0.875060000
N       -3.563914000     -0.954105000     -0.162523000
F        3.413405000     -0.289272000     -0.800352000
F        1.028182000     -0.154855000     -2.041501000
C       11.879773000     -2.546306000     17.396511000
N       11.347714000     -3.513256000     17.790647000
C       -3.428507000     -1.080281000      3.209678000
N       -4.252971000     -1.367697000      3.981744000
H       14.850708000      0.589151000     16.180710000
H       11.419480000      4.037214000     15.015114000
H        9.697357000     -1.832165000     16.765941000
H        6.578235000     -1.012574000     18.927613000
H        6.629066000      0.749638000     18.783161000
H        8.130819000     -0.183427000     18.768669000
H        6.089965000      0.911110000     12.023118000
H        4.790121000      0.721661000     10.862362000
H        5.783442000     -0.689137000     11.309952000
H        2.493715000     -1.818228000      9.263603000
H        3.625916000     -1.579837000     10.580578000
H        3.772541000     -0.593642000      9.102470000
H       -3.623746000      0.385313000      6.760404000
H       -2.973067000      1.931163000      6.193377000
H       -3.343479000      1.698241000      7.894737000
H       -2.166472000      0.195356000      4.808574000
H        3.333701000     -0.459418000      1.822274000
H       -1.068269000     -0.242191000     -0.555447000

eps=3.36
epsinf=3.36
RSolv=7.28

