%mem=700MW
%nprocshared=16
#p wB97XD/6-31g** td=(nstates=1) scf=(MaxCycle=20000,verytight) iop(3/107=0016000000,3/108=0016000000) nosymm pop=esp SCRF=(PCM,Solvent=Generic,Read)

 Y6

0  1
C       -0.275770000     -0.365035000     -0.024230000
C       -0.193405000     -0.455278000      1.371102000
C        1.068824000     -0.510689000      1.990374000
C        2.259445000     -0.505858000      1.268563000
C        2.166614000     -0.423074000     -0.114525000
C        0.912585000     -0.344331000     -0.746058000
C       -1.241074000     -0.531466000      2.419013000
C       -0.562723000     -0.405971000      3.720455000
C        0.901130000     -0.543289000      3.465375000
C       -1.173945000     -0.028163000      4.895876000
C       -0.723779000      0.171460000      6.237441000
S        0.856551000     -0.302564000      6.888048000
C        0.380081000      0.206789000      8.471651000
C       -0.921011000      0.743812000      8.481067000
C       -1.563956000      0.733660000      7.231699000
S       -1.434212000      1.326277000     10.074697000
C        0.116661000      0.845433000     10.718217000
C        0.974191000      0.278933000      9.750424000
N        2.166437000     -0.087420000     10.335330000
C        2.091184000      0.272087000     11.681368000
C        0.787589000      0.817013000     11.945213000
C        3.052936000      0.216257000     12.717071000
C        2.646576000      0.425628000     14.085607000
C        1.308700000      0.869592000     14.380233000
C        0.393590000      1.132850000     13.293124000
N        4.420684000     -0.052561000     12.686801000
C        4.858496000     -0.085543000     13.994615000
C        3.773557000      0.201085000     14.870507000
C        6.066131000     -0.280621000     14.671762000
C        5.904991000     -0.139540000     16.068751000
S        4.238595000      0.217427000     16.553154000
C        7.087786000     -0.294001000     16.822376000
C        8.169610000     -0.578031000     15.983049000
S        7.723901000     -0.641814000     14.278451000
N       -0.784426000      1.602568000     13.685371000
S       -0.729906000      1.696377000     15.336573000
N        0.808555000      1.137529000     15.579865000
C        9.560594000     -0.866271000     16.368554000
C       10.621273000      0.003928000     16.291819000
C       12.031437000     -0.233282000     16.514743000
C       12.742856000      1.030743000     16.247606000
C       11.813943000      2.042714000     15.909788000
C       10.451662000      1.465353000     15.946528000
C       12.183413000      3.347937000     15.610916000
C       13.539361000      3.660514000     15.646363000
C       14.476057000      2.674766000     15.979963000
C       14.106325000      1.364651000     16.281695000
F       15.780186000      3.010753000     16.008623000
F       13.964284000      4.911047000     15.362187000
C       12.643246000     -1.454562000     16.919714000
C       14.046708000     -1.636139000     17.044128000
N       15.193795000     -1.844498000     17.159707000
O        9.401194000      2.057796000     15.741800000
C        7.189323000     -0.174270000     18.321085000
C        5.344501000      0.188500000     11.565680000
C        3.059893000     -1.089987000      9.733233000
C       -2.958608000      1.263256000      6.997649000
O        1.800883000     -0.635183000      4.287821000
C       -2.578107000     -0.800791000      2.196125000
C       -3.163329000     -0.907663000      0.892378000
N       -3.700592000     -1.000249000     -0.137655000
F        3.272122000     -0.407090000     -0.869899000
F        0.873508000     -0.244628000     -2.081151000
C       11.925523000     -2.632007000     17.259834000
N       11.388405000     -3.630922000     17.556005000
C       -3.524082000     -1.085695000      3.235048000
N       -4.340235000     -1.356257000      4.021787000
H       14.884528000      0.660235000     16.530416000
H       11.450366000      4.102771000     15.358706000
H        9.747977000     -1.914937000     16.565090000
H        6.616570000     -0.963967000     18.815495000
H        6.798159000      0.788539000     18.659725000
H        8.226303000     -0.254554000     18.643050000
H        6.135222000      0.857482000     11.901223000
H        4.813987000      0.688573000     10.762025000
H        5.782461000     -0.741132000     11.206711000
H        2.455442000     -1.830347000      9.211747000
H        3.603909000     -1.607146000     10.516930000
H        3.755182000     -0.631016000      9.032317000
H       -3.656131000      0.453732000      6.775142000
H       -2.982126000      1.975197000      6.170685000
H       -3.330455000      1.780169000      7.881227000
H       -2.226881000      0.205805000      4.800332000
H        3.224078000     -0.560192000      1.754497000
H       -1.204764000     -0.294098000     -0.567949000

eps=3.36
epsinf=3.36
RSolv=7.28

