%mem=1000MW
%nprocshared=40
#p wB97XD/6-31g** nosymm pop=esp opt td=(triplet,nstates=2,root=1) scf=(MaxCycle=20000) iop(3/107=0016000000,3/108=0016000000) SCRF=(PCM,Solvent=Generic,Read)

 Y6 opt-TDdft

0 1
C         -0.23769        0.02140       -0.03618
C         -0.11453       -0.13045        1.35066
C          1.12289        0.12315        1.97087
C          2.25573        0.50310        1.25600
C          2.12431        0.64619       -0.11911
C          0.88889        0.41431       -0.75023
C         -1.08731       -0.55736        2.38603
C         -0.45012       -0.33813        3.69565
C          0.99231       -0.05400        3.43957
C         -1.12691       -0.20869        4.88777
C         -0.73002        0.00961        6.24336
S          0.92022       -0.13216        6.87627
C          0.34518        0.11893        8.48894
C         -1.04329        0.34529        8.52076
C         -1.67246        0.28488        7.26483
S         -1.67103        0.66320       10.14710
C         -0.05095        0.48843       10.77568
C          0.91013        0.21011        9.78091
N          2.15199        0.05649       10.35719
C          1.99821        0.26752       11.72812
C          0.60810        0.49618       12.00941
C          2.94504        0.31042       12.77952
C          2.49374        0.30206       14.15038
C          1.09178        0.43354       14.45075
C          0.14810        0.59755       13.36945
N          4.33821        0.32326       12.76164
C          4.76430        0.24460       14.07234
C          3.63602        0.22915       14.94097
C          5.97928        0.20183       14.76046
C          5.78011        0.14622       16.16041
S          4.07158        0.15594       16.62983
C          6.95940        0.06934       16.92671
C          8.08799        0.07962       16.09527
S          7.67822        0.14349       14.38083
N         -1.10464        0.77275       13.77192
S         -1.08012        0.72582       15.42593
N          0.54030        0.48115       15.65695
C          9.49312       -0.10266       16.48328
C         10.39584        0.89872       16.75490
C         11.78663        0.81931       17.13709
C         12.27288        2.19858       17.33815
C         11.22993        3.11822       17.07954
C         10.01573        2.35841       16.70311
C         11.38395        4.49425       17.18670
C         12.63199        4.97935       17.56968
C         13.67694        4.08637       17.83310
C         13.52331        2.70425       17.72478
F         14.87210        4.58446       18.20519
F         12.84430        6.30818       17.69207
C         12.56980       -0.36124       17.29496
C         13.94021       -0.36236       17.66879
N         15.06994       -0.42419       17.97309
O          8.92250        2.82394       16.41132
C          7.01713       -0.00791       18.43050
C          5.20400        0.84238       11.68973
C          3.24519       -0.66611        9.68775
C         -3.15518        0.48118        7.05676
O          1.89390        0.04809        4.25863
C         -2.30392       -1.16625        2.14308
C         -2.85995       -1.34184        0.83394
N         -3.36725       -1.50769       -0.20209
F          3.17152        1.01658       -0.86698
F          0.80593        0.58144       -2.07648
C         12.07588       -1.67634       17.08823
N         11.72431       -2.78356       16.93104
C         -3.11686       -1.76626        3.16071
N         -3.81151       -2.29901        3.93016
H         14.37417        2.07935       17.94679
H         10.56878        5.17618       16.98316
H          9.79984       -1.13963       16.53958
H          8.04479       -0.11990       18.77143
H          6.43926       -0.85969       18.79883
H          6.60531        0.89958       18.88002
H          5.87066        1.59358       12.10973
H          4.59176        1.33252       10.93944
H          5.79305        0.04775       11.23593
H          2.81748       -1.43840        9.05098
H          3.85946       -1.16290       10.43213
H          3.85336        0.00391        9.08238
H         -3.65333       -0.47552        6.88546
H         -3.36340        1.13457        6.20856
H         -3.61139        0.93732        7.93464
H         -2.20513       -0.25120        4.79993
H          3.20483        0.68552        1.74139
H         -1.15845       -0.13269       -0.57656

  eps=3.36
  epsinf=3.36
  RSolv=7.28

