%mem=1000MW
%nprocshared=40
#p wB97XD/6-31g** nosymm pop=esp opt td=(nstates=2,root=1) scf=(MaxCycle=20000) iop(3/107=0016000000,3/108=0016000000) SCRF=(PCM,Solvent=Generic,Read)

 Y6 opt-TDdft

0 1
C         -0.23780        0.02136       -0.03622
C         -0.11453       -0.13042        1.35062
C          1.12294        0.12318        1.97072
C          2.25572        0.50309        1.25575
C          2.12420        0.64613       -0.11936
C          0.88873        0.41423       -0.75037
C         -1.08724       -0.55727        2.38608
C         -0.44996       -0.33796        3.69564
C          0.99248       -0.05395        3.43943
C         -1.12668       -0.20840        4.88780
C         -0.72976        0.00998        6.24336
S          0.92047       -0.13182        6.87631
C          0.34539        0.11923        8.48896
C         -1.04305        0.34574        8.52075
C         -1.67219        0.28538        7.26481
S         -1.67082        0.66368       10.14708
C         -0.05078        0.48866       10.77571
C          0.91030        0.21027        9.78096
N          2.15212        0.05648       10.35728
C          1.99832        0.26746       11.72821
C          0.60822        0.49625       12.00946
C          2.94511        0.31021       12.77964
C          2.49378        0.30181       14.15048
C          1.09182        0.43341       14.45082
C          0.14818        0.59759       13.36949
N          4.33829        0.32290       12.76181
C          4.76433        0.24413       14.07252
C          3.63602        0.22871       14.94110
C          5.97928        0.20114       14.76068
C          5.78006        0.14549       16.16061
S          4.07152        0.15521       16.62998
C          6.95935        0.06870       16.92696
C          8.08795        0.07905       16.09556
S          7.67823        0.14244       14.38110
N         -1.10455        0.77290       13.77194
S         -1.08009        0.72587       15.42595
N          0.54029        0.48099       15.65700
C          9.49311       -0.10298       16.48360
C         10.39571        0.89858       16.75497
C         11.78654        0.81941       17.13715
C         12.27262        2.19878       17.33792
C         11.22960        3.11824       17.07901
C         10.01549        2.35821       16.70271
C         11.38348        4.49431       17.18580
C         12.63144        4.97965       17.56875
C         13.67645        4.08685       17.83249
C         13.52297        2.70468       17.72451
F         14.87154        4.58516       18.20453
F         12.84360        6.30854       17.69077
C         12.56986       -0.36101       17.29531
C         13.94032       -0.36185       17.66895
N         15.07013       -0.42360       17.97299
O          8.92226        2.82358       16.41069
C          7.01703       -0.00843       18.43076
C          5.20416        0.84205       11.68997
C          3.24525       -0.66622        9.68783
C         -3.15490        0.48180        7.05672
O          1.89413        0.04821        4.25841
C         -2.30390       -1.16612        2.14326
C         -2.86005       -1.34175        0.83418
N         -3.36750       -1.50760       -0.20178
F          3.17136        1.01647       -0.86732
F          0.80568        0.58130       -2.07663
C         12.07611       -1.67625       17.08906
N         11.72477       -2.78360       16.93229
C         -3.11677       -1.76607        3.16099
N         -3.81139       -2.29877        3.93050
H         14.37388        2.07995       17.94675
H         10.56826        5.17612       16.98203
H          9.79991       -1.13990       16.54009
H          8.04468       -0.12040       18.77171
H          6.43914       -0.86017       18.79914
H          6.60520        0.89910       18.88018
H          5.87070        1.59334       12.10999
H          4.59196        1.33207       10.93958
H          5.79333        0.04743       11.23629
H          2.81748       -1.43857        9.05116
H          3.85956       -1.16296       10.43222
H          3.85341        0.00371        9.08237
H         -3.65314       -0.47489        6.88555
H         -3.36306        1.13509        6.20843
H         -3.61107        0.93810        7.93453
H         -2.20491       -0.25085        4.79999
H          3.20487        0.68551        1.74106
H         -1.15859       -0.13275       -0.57653

  eps=3.36
  epsinf=3.36
  RSolv=7.28

