%mem=1000MW
%nprocshared=40
#p wB97XD/6-31g** nosymm pop=esp opt td=(triplet,nstates=3,root=2) scf=(MaxCycle=20000) iop(3/107=0016000000,3/108=0016000000) SCRF=(PCM,Solvent=Generic,Read)

 Y6 opt-TDdft

0 1
C          0.25449        0.90700        0.17744
C          0.29161        0.68860        1.55852
C          1.31690        1.27434        2.32195
C          2.31503        2.06365        1.76196
C          2.26748        2.27787        0.38835
C          1.24677        1.70703       -0.38587
C         -0.57619       -0.11266        2.46511
C         -0.13245        0.13055        3.82792
C          1.12808        0.91837        3.75355
C         -0.87041       -0.16211        4.97969
C         -0.60157       -0.09357        6.36321
S          0.98886        0.17903        7.10970
C          0.32332       -0.11163        8.69506
C         -1.07601       -0.34499        8.63155
C         -1.61774       -0.33689        7.35279
S         -1.81383       -0.58891       10.23165
C         -0.23861       -0.38169       10.96076
C          0.79061       -0.12373       10.00932
N          2.00275       -0.00201       10.66295
C          1.75299       -0.15427       12.03395
C          0.34475       -0.43470       12.21938
C          2.59712       -0.03739       13.14893
C          2.13530       -0.46601       14.45226
C          0.75655       -0.83627       14.64459
C         -0.16082       -0.76047       13.52858
N          3.92750        0.39064       13.26295
C          4.31606        0.17572       14.57280
C          3.22009       -0.35673       15.31195
C          5.45971        0.35319       15.35222
C          5.24577       -0.04383       16.69868
S          3.60030       -0.65063       16.99262
C          6.34682        0.08927       17.53481
C          7.48237        0.60322       16.81593
S          7.08435        0.94154       15.11608
N         -1.41317       -1.06665       13.84105
S         -1.42261       -1.43607       15.45731
N          0.18703       -1.20591       15.78428
C          8.75570        0.71781       17.41390
C          9.97944        1.26095       17.01055
C         11.21605        1.19600       17.77360
C         12.14653        2.21366       17.21156
C         11.56324        2.76485       16.05699
C         10.21728        2.16595       15.85312
C         12.19822        3.72695       15.27961
C         13.45646        4.15482       15.69032
C         14.04691        3.62283       16.84623
C         13.41226        2.65024       17.61626
F         15.25771        4.06897       17.21591
F         14.12021        5.08649       14.98727
C         11.54360        0.28783       18.78013
C         12.76306        0.32746       19.52551
N         13.73147        0.31036       20.17659
O          9.46548        2.40871       14.91762
C          6.35730       -0.26182       19.00198
C          4.58980        1.39058       12.41005
C          3.28147       -0.25771        9.98187
C         -3.07608       -0.55791        7.03618
O          1.86846        1.24717        4.67172
C         -1.55857       -1.00815        2.04203
C         -1.98362       -1.14020        0.68351
N         -2.38301       -1.28708       -0.40324
F          3.19607        3.03832       -0.21361
F          1.23083        1.94257       -1.70730
C         10.74302       -0.84363       19.13487
N         10.16501       -1.80479       19.45714
C         -2.19983       -1.95952        2.89660
N         -2.73982       -2.78452        3.52082
H         13.92099        2.28752       18.49545
H         11.74025        4.13708       14.38958
H          8.76019        0.30371       18.41380
H          6.77657        0.54826       19.60252
H          6.94471       -1.16329       19.18899
H          5.34647       -0.44531       19.36555
H          4.90826        2.23195       13.02489
H          3.88000        1.76815       11.68069
H          5.45439        0.96589       11.90156
H          3.13793       -1.03429        9.23115
H          4.00551       -0.62677       10.70165
H          3.66176        0.64307        9.50193
H         -3.46126        0.21799        6.37109
H         -3.67870       -0.53868        7.94392
H         -3.23384       -1.52592        6.55572
H         -1.88106       -0.49904        4.78801
H          3.10189        2.50191        2.36109
H         -0.50281        0.50194       -0.47530

  eps=3.36
  epsinf=3.36
  RSolv=7.28

