%mem=800MW
%nprocshared=64
#p wB97XD/6-31g** opt td=(triplet,nstates=2,root=1) pop=esp scf=(MaxCycle=20000) nosymm iop(3/107=0000100000,3/108=0000100000) SCRF=(PCM,Solvent=Generic,Read)

IEICO-4Cl

0  1
C         12.42089       -0.65902        9.95655
C         12.76783        0.17716        8.89362
C         14.06350        0.09038        8.35768
C         15.01129       -0.80403        8.83039
C         14.66165       -1.64748        9.89363
C         13.37171       -1.56557       10.45321
C         14.20919        1.09339        7.26708
C         12.91190        1.80800        7.16975
C         12.00197        1.21832        8.14211
C         12.62385        2.88595        6.32685
C         13.33653        3.60246        5.33809
C         12.72550        4.68179        4.65242
C         13.53839        5.29159        3.70397
C         14.84334        4.71144        3.61470
S         14.98442        3.36903        4.75755
C         15.92300        5.08523        2.79055
C         17.21401        4.48391        2.76053
C         18.07059        5.08502        1.85581
C         17.48389        6.15655        1.15435
S         15.83172        6.43257        1.62092
C         18.40127        6.74801        0.25081
C         19.63460        6.01301        0.35060
C         19.51250        4.85730        1.37901
C         20.73513        6.38997       -0.38388
C         20.61121        7.50876       -1.24976
C         19.36939        8.22696       -1.36955
C         18.27392        7.85992       -0.62293
C         19.50209        9.40943       -2.36468
C         20.98515        9.26825       -2.73765
C         21.55088        8.14899       -2.09515
S         23.22020        7.91007       -2.52334
C         23.16678        9.34528       -3.58687
C         21.87007        9.93633       -3.56319
C         18.67864        9.22218       -3.66827
C         18.54086       10.29342       -4.56982
C         17.88761       10.13074       -5.79086
C         17.34299        8.89054       -6.17009
C         17.48492        7.82495       -5.27123
C         18.14288        7.98426       -4.04580
C         16.62010        8.72717       -7.49570
C         19.17183       10.72413       -1.61240
C         17.86300       11.22971       -1.58278
C         17.54797       12.37439       -0.84528
C         18.52396       13.05811       -0.10372
C         19.83026       12.54270       -0.12698
C         20.14813       11.39825       -0.86185
C         24.27629        9.79617       -4.32635
S         24.16259       11.21981       -5.37070
C         25.85414       11.08852       -5.84661
C         26.45178        9.96338       -5.22516
C         25.59802        9.24946       -4.39231
C         19.56777        3.44571        0.73321
C         19.35964        3.24525       -0.63787
C         19.31603        1.95679       -1.18200
C         19.47203        0.81814       -0.37914
C         19.67359        1.02232        0.99720
C         19.71833        2.30541        1.54259
C         20.57588        5.06993        2.48642
C         20.32008        5.89337        3.59391
C         21.30456        6.13611        4.55487
C         22.58730        5.57527        4.44637
C         22.84434        4.76453        3.32971
C         21.86119        4.51805        2.36768
C         26.61251       11.94541       -6.67591
C         26.33023       13.09220       -7.42635
C         24.98367       13.64619       -7.71686
C         25.17750       14.71992       -8.73204
C         26.54856       14.84981       -9.01071
C         27.30563       13.88341       -8.15937
C         26.96047       15.79663       -9.94990
C         25.99423       16.59184      -10.58811
C         24.62464       16.45179      -10.29167
C         24.21219       15.50187       -9.34686
O         25.87678        8.15139       -3.67076
C         27.20384        7.59321       -3.72656
O         23.90579       13.29827       -7.24871
C         28.70031       13.83939       -8.06144
C         29.42763       13.05519       -7.10997
N         30.09331       12.46385       -6.35413
C         18.17849       14.29162        0.71266
C         19.44141       -0.58218       -0.96629
C         23.65966        5.85700        5.48477
O         13.23517        6.32441        2.89975
C         11.92348        6.91484        2.97859
C         10.64897        1.50098        8.35702
C          9.84715        0.87955        9.36636
N          9.12484        0.42640       10.16420
O         15.22258        1.27564        6.60189
C         29.58749       14.61679       -8.87079
N         30.37561       15.20805       -9.49767
C          9.86583        2.42247        7.59128
N          9.15269        3.14514        7.01383
H         15.99795       -0.85081        8.39015
H         11.44944       -0.63684       10.42157
H         11.71074        4.98075        4.86596
H         11.91666        7.70368        2.23121
H         11.75273        7.34271        3.96833
H         11.15409        6.17743        2.74240
H         17.47758        3.65151        3.39453
H         19.22282        4.08976       -1.30070
H         19.15384        1.84576       -2.24950
H         19.79462        0.16898        1.65724
H         19.87553        2.41342        2.60863
H         19.34754        6.35248        3.72059
H         21.06277        6.77072        5.40178
H         22.10349        3.87701        1.52904
H         23.82229        4.31000        3.20557
H         21.16916       11.03758       -0.84442
H         20.61662       13.04012        0.43222
H         17.07725       10.74046       -2.14497
H         16.52533       12.73856       -0.85630
H         18.94245       11.26803       -4.32092
H         17.80390       10.98281       -6.45827
H         18.23297        7.12609       -3.39278
H         17.08011        6.84945       -5.52189
H         17.33956        8.39904       -0.69004
H         21.67458        5.86116       -0.30572
H         21.62820       10.81903       -4.13441
H         18.00928       14.02924        1.76309
H         17.27102       14.77465        0.34418
H         18.98629       15.02724        0.68718
H         15.65375        9.24276       -7.48010
H         16.43156        7.67627       -7.72351
H         17.20103        9.15216       -8.31919
H         27.48867        9.71441       -5.39211
H         27.99507       15.94290      -10.21260
H         23.16453       15.38145       -9.10723
H         27.18331        6.73126       -3.06500
H         27.94087        8.31481       -3.36911
H         27.44308        7.27370       -4.74270
H         18.99475       -0.59033       -1.96257
H         18.86648       -1.26418       -0.33408
H         20.45329       -0.99340       -1.05321
H         23.23140        5.94580        6.48619
H         24.17449        6.79935        5.26570
H         24.41422        5.06794        5.50770
H         11.63246        3.30002        6.44138
H         27.63819       11.60736       -6.73229
Cl        26.55416       17.76173      -11.76509
Cl        23.40717       17.43560      -11.07531
Cl        15.85542       -2.77800       10.49419
Cl        12.89740       -2.58817       11.79349
                                                  
  eps=4.97393                                      
  epsinf=4.97393                                   
  RSolv=8.87                                       
 
