%mem=800MW
%nprocshared=64
%chk=IT-4Cl-HSO-w-00011-T2paraS1.chk
%rwf=IT-4Cl-HSO-w-00011-T2paraS1.rwf
#p wB97XD/6-31g** td(50-50,nstates=5) 6D 10F nosymm GFInput scf=(MaxCycle=20000) iop(3/107=0001100000,3/108=0001100000) SCRF=(PCM,Solvent=Generic,Read)

IT-4Cl

0  1
C              -4.9908100000     15.4773400000     -0.6709000000
C              -4.7454300000     14.1299500000     -0.3962000000
C              -4.4333700000     13.7536700000      0.9225400000
C              -4.3649200000     14.6643000000      1.9655200000
C              -4.6076800000     16.0164200000      1.6895700000
C              -4.9162700000     16.4134800000      0.3729600000
C              -4.2050600000     12.2856400000      0.9699100000
C              -4.3485900000     11.7896400000     -0.4334900000
C              -4.7586100000     12.9140900000     -1.2565700000
C              -4.0290900000     10.5098000000     -0.8957600000
C              -3.6631800000      9.2877600000     -0.2811300000
S              -3.5534000000      8.8946500000      1.4489000000
C              -3.1273500000      7.2380700000      1.0833700000
C              -3.0624300000      7.0272900000     -0.3192300000
C              -3.3585600000      8.1486900000     -1.0801800000
C              -2.8114500000      6.0843500000      1.8206500000
C              -2.5162300000      5.0090400000      0.9783400000
S              -2.6136500000      5.3724900000     -0.7264500000
C              -2.2034400000      3.8230400000      1.7388500000
C              -2.3519200000      4.1615900000      3.1130000000
C              -2.7344700000      5.6548600000      3.2932200000
C              -1.8100300000      2.5371800000      1.3271900000
C              -1.5764900000      1.5867000000      2.3091200000
C              -1.7442500000      1.9192400000      3.6827500000
C              -2.1270000000      3.2084900000      4.0947500000
C              -1.0939000000      0.1226200000      2.1316300000
C              -1.0636400000     -0.3212700000      3.6013900000
C              -1.4479600000      0.7274100000      4.4415800000
S              -1.4914100000      0.3193300000      6.1386800000
C              -0.9812300000     -1.3180400000      5.7302900000
C              -0.7977500000     -1.4905900000      4.3331600000
S              -0.2990500000     -3.1249500000      3.9626000000
C              -0.3274000000     -3.5639500000      5.6845100000
C              -0.7239900000     -2.4537800000      6.4846100000
C               0.3132800000      0.1778500000      1.4787400000
C               0.4559500000      0.2657900000      0.0841800000
C               1.7132100000      0.4160800000     -0.5047700000
C               2.8811600000      0.4872900000      0.2715700000
C               2.7340600000      0.4054600000      1.6648100000
C               1.4774500000      0.2577700000      2.2572700000
C               4.2512400000      0.6220200000     -0.3692300000
C              -2.1137900000     -0.7707700000      1.3762000000
C              -1.7070600000     -1.9458000000      0.7244800000
C              -2.6373100000     -2.7972000000      0.1235800000
C              -4.0125000000     -2.5163600000      0.1535400000
C              -4.4165000000     -1.3459100000      0.8150000000
C              -3.4888500000     -0.4915800000      1.4160000000
C               0.0073100000     -4.7981500000      6.2932100000
C               0.3962300000     -6.0553400000      5.8212000000
C               0.4000400000     -6.5041000000      4.3946600000
C               0.6438300000     -7.9699900000      4.4158600000
C               0.8339600000     -8.3879400000      5.7452000000
C               0.7515000000     -7.2008000000      6.6413400000
C               1.0677500000     -9.7418300000      5.9970300000
C               1.1052000000    -10.6420200000      4.9197900000
C               0.9184000000    -10.2028900000      3.5937300000
C               0.6865500000     -8.8443900000      3.3411300000
C              -4.1337000000      5.8529200000      3.9350200000
C              -4.4774000000      7.0607300000      4.5639400000
C              -5.7575100000      7.2651000000      5.0827300000
C              -6.7508300000      6.2765300000      4.9905100000
C              -6.4096300000      5.0784700000      4.3444500000
C              -5.1294600000      4.8708400000      3.8237500000
C              -1.5788400000      6.3414000000      4.0699300000
C              -1.5510000000      6.3331500000      5.4744100000
C              -0.4712200000      6.8713000000      6.1775600000
C               0.6278300000      7.4367900000      5.5111200000
C               0.6028300000      7.4304300000      4.1080100000
C              -0.4751100000      6.8909900000      3.4014000000
O               0.2269600000     -5.8217500000      3.3949200000
C               1.0431200000     -7.2139000000      8.0153800000
C               1.1626200000     -6.0484200000      8.8352200000
N               1.2979400000     -5.1475100000      9.5665000000
Cl              0.9634800000    -11.3099200000      2.2397000000
Cl              1.3933700000    -12.3299600000      5.2818200000
C              -5.0180000000     -3.4339700000     -0.5193200000
C              -8.1286100000      6.4917300000      5.5913200000
C               1.7816200000      8.0594700000      6.2770700000
C              -5.1648500000     12.8904700000     -2.6013100000
C              -5.3722600000     11.7037800000     -3.3717000000
N              -5.5832600000     10.7849100000     -4.0615700000
O              -3.9381000000     11.6337100000      1.9693800000
Cl             -4.5138000000     17.1691500000      3.0024200000
Cl             -5.2218900000     18.0918400000     -0.0172700000
C               1.3147300000     -8.4011600000      8.7630900000
N               1.5357200000     -9.3267400000      9.4404100000
C              -5.4764300000     14.0593200000     -3.3624700000
N              -5.7361700000     14.9673200000     -4.0498200000
H              -4.1295000000     14.3406900000      2.9702200000
H              -5.2294200000     15.8346000000     -1.6591200000
H              -4.0416700000     10.4001200000     -1.9712800000
H              -3.3705800000      8.1816400000     -2.1599800000
H              -2.2429600000      3.4418700000      5.1432900000
H              -1.6939400000      2.3040800000      0.2785600000
H              -0.8051600000     -2.5177900000      7.5599600000
H              -0.0833800000     -4.7247300000      7.3681600000
H               1.2154000000    -10.1322200000      6.9903300000
H               0.5422700000     -8.4875400000      2.3304700000
H              -4.9188800000      3.9313600000      3.3285900000
H              -0.4917500000      6.8498400000      7.2626900000
H              -2.3780700000      5.9136000000      6.0332800000
H               1.4341800000      7.8518300000      3.5519400000
H              -0.4395400000      6.9002400000      2.3194000000
H              -7.1495400000      4.2907500000      4.2436500000
H              -5.9795000000      8.2109000000      5.5666300000
H              -3.7434300000      7.8495800000      4.6648100000
H              -0.4142400000      0.2107000000     -0.5579100000
H               1.7802500000      0.4784700000     -1.5863800000
H               1.4169000000      0.2124700000      3.3371100000
H               3.6096000000      0.4589600000      2.3041600000
H              -3.8529500000      0.3941100000      1.9214300000
H              -5.4708800000     -1.0937500000      0.8692200000
H              -2.2795700000     -3.6950700000     -0.3700800000
H              -0.6578900000     -2.2060800000      0.6748100000
H              -8.4920200000      7.5054100000      5.4035100000
H              -8.8593900000      5.7898300000      5.1844000000
H              -8.1037300000      6.3502600000      6.6776000000
H               2.7224200000      7.9693000000      5.7290600000
H               1.6022600000      9.1269800000      6.4474100000
H               1.9138600000      7.5895800000      7.2544000000
H              -4.7376800000     -4.4841700000     -0.4061500000
H              -6.0188400000     -3.3054600000     -0.1015800000
H              -5.0793700000     -3.2255000000     -1.5933300000
H               4.1889300000      1.0931900000     -1.3525900000
H               4.9240800000      1.2197700000      0.2503900000
H               4.7162200000     -0.3610900000     -0.5036700000
                                                
  eps=4.88617                                      
  epsinf=4.88617                                   
  RSolv=8.36                                       
    
