%mem=1000MW
%nprocshared=40
#p wB97XD/6-31g** nosymm pop=esp opt td=(nstates=2,root=1) scf=(MaxCycle=20000) iop(3/107=0016000000,3/108=0016000000) SCRF=(PCM,Solvent=Generic,Read)

 Y6 opt-TDdft

0 1
C         -0.23747        0.02281       -0.03553
C         -0.11412       -0.12964        1.35122
C          1.12342        0.12362        1.97139
C          2.25620        0.50377        1.25652
C          2.12459        0.64741       -0.11851
C          0.88904        0.41590       -0.74956
C         -1.08681       -0.55688        2.38646
C         -0.44959       -0.33775        3.69618
C          0.99303       -0.05408        3.43999
C         -1.12631       -0.20806        4.88821
C         -0.72919        0.01025        6.24385
S          0.92084       -0.13256        6.87668
C          0.34591        0.11909        8.48939
C         -1.04249        0.34651        8.52109
C         -1.67159        0.28639        7.26521
S         -1.67027        0.66504       10.14734
C         -0.05042        0.48901       10.77609
C          0.91077        0.20987        9.78119
N          2.15239        0.05538       10.35757
C          1.99871        0.26674       11.72853
C          0.60830        0.49637       12.00962
C          2.94516        0.30952       12.77965
C          2.49373        0.30186       14.15078
C          1.09177        0.43446       14.45098
C          0.14826        0.59856       13.36961
N          4.33859        0.32084       12.76225
C          4.76412        0.24191       14.07283
C          3.63565        0.22765       14.94138
C          5.97914        0.19840       14.76127
C          5.77970        0.14371       16.16086
S          4.07131        0.15462       16.63042
C          6.95942        0.06731       16.92762
C          8.08693        0.07714       16.09637
S          7.67807        0.13900       14.38205
N         -1.10437        0.77472       13.77190
S         -1.07997        0.72853       15.42597
N          0.54028        0.48293       15.65710
C          9.49363       -0.10390       16.48419
C         10.39484        0.89777       16.75417
C         11.78658        0.81982       17.13671
C         12.27098        2.19873       17.33621
C         11.22756        3.11817       17.07653
C         10.01405        2.35829       16.70042
C         11.38108        4.49451       17.18243
C         12.62856        4.98061       17.56509
C         13.67403        4.08807       17.82951
C         13.52137        2.70606       17.72257
F         14.86883        4.58740       18.20124
F         12.84047        6.30976       17.68635
C         12.57035       -0.36087       17.29575
C         13.94049       -0.36097       17.67004
N         15.07023       -0.42177       17.97483
O          8.92084        2.82290       16.40730
C          7.01681       -0.00853       18.43156
C          5.20531        0.83861       11.69039
C          3.24526       -0.66793        9.68832
C         -3.15413        0.48374        7.05682
O          1.89463        0.04748        4.25907
C         -2.30328       -1.16597        2.14357
C         -2.85917       -1.34189        0.83440
N         -3.36632       -1.50805       -0.20165
F          3.17170        1.01799       -0.86637
F          0.80594        0.58359       -2.07571
C         12.07748       -1.67629       17.08981
N         11.72671       -2.78393       16.93320
C         -3.11620       -1.76589        3.16129
N         -3.81079       -2.29854        3.93085
H         14.37259        2.08190       17.94527
H         10.56555        5.17578       16.97804
H          9.80114       -1.14053       16.54181
H          8.04445       -0.12007       18.77279
H          6.43911       -0.86009       18.80067
H          6.60491        0.89929       18.88034
H          5.87332        1.58851       12.11054
H          4.59395        1.33003       10.94022
H          5.79291        0.04299       11.23646
H          2.81712       -1.43953        9.05101
H          3.85863       -1.16566       10.43282
H          3.85433        0.00180        9.08357
H         -3.65288       -0.47261        6.88531
H         -3.36165        1.13740        6.20866
H         -3.61024        0.94008        7.93464
H         -2.20454       -0.25032        4.80046
H          3.20539        0.68593        1.74184
H         -1.15833       -0.13093       -0.57584

  eps=3.36
  epsinf=3.36
  RSolv=7.28

