%mem=800MW
%nprocshared=64
#p wB97XD/6-31g** opt td=(nstates=2,root=1) pop=esp scf=(MaxCycle=20000) nosymm iop(3/107=0001100000,3/108=0001100000) SCRF=(PCM,Solvent=Generic,Read)

IT-4Cl

0  1
C         -4.97760       15.46058       -0.68130
C         -4.75321       14.11203       -0.39793
C         -4.45590       13.73494        0.92263
C         -4.38616       14.64849        1.96319
C         -4.61182       16.00189        1.68010
C         -4.90180       16.39994        0.35950
C         -4.23274       12.26410        0.97581
C         -4.36441       11.76681       -0.42070
C         -4.77304       12.88993       -1.25504
C         -4.04017       10.48890       -0.88149
C         -3.66966        9.27060       -0.26724
S         -3.56194        8.88123        1.46435
C         -3.12568        7.22482        1.10167
C         -3.05698        7.01500       -0.30989
C         -3.35638        8.13120       -1.06597
C         -2.81104        6.08481        1.83462
C         -2.50499        4.98896        0.98779
S         -2.60089        5.36171       -0.72413
C         -2.19382        3.83219        1.73320
C         -2.34292        4.16565        3.12893
C         -2.72992        5.65888        3.30721
C         -1.79435        2.52989        1.32157
C         -1.56138        1.58878        2.29308
C         -1.73255        1.91546        3.68809
C         -2.12226        3.22092        4.10006
C         -1.07981        0.12313        2.11766
C         -1.06027       -0.32125        3.58672
C         -1.44970        0.74972        4.43138
S         -1.49113        0.33378        6.13568
C         -0.98588       -1.30547        5.72016
C         -0.80199       -1.47859        4.31416
S         -0.30624       -3.11646        3.94697
C         -0.33583       -3.55070        5.67065
C         -0.73181       -2.43739        6.46997
C          0.33232        0.17563        1.47610
C          0.48616        0.26542        0.08287
C          1.74839        0.41399       -0.49537
C          2.91028        0.48158        0.29063
C          2.75185        0.39836        1.68238
C          1.48998        0.25278        2.26433
C          4.28554        0.61455       -0.33924
C         -2.09718       -0.76872        1.35746
C         -1.68880       -1.94017        0.70021
C         -2.61805       -2.78935        0.09495
C         -3.99364       -2.51019        0.12625
C         -4.39926       -1.34398        0.79412
C         -3.47266       -0.49190        1.39979
C         -0.00200       -4.78257        6.27947
C          0.38254       -6.04039        5.80933
C          0.38793       -6.49285        4.39135
C          0.61883       -7.96300        4.41893
C          0.79852       -8.38062        5.74846
C          0.73333       -7.18550        6.64060
C          1.00559       -9.73651        6.00857
C          1.03168      -10.64228        4.93586
C          0.85916      -10.20346        3.60764
C          0.65048       -8.84273        3.34793
C         -4.12961        5.85417        3.94830
C         -4.47546        7.05952        4.58090
C         -5.75649        7.26052        5.09836
C         -6.74870        6.27126        5.00070
C         -6.40553        5.07616        4.35022
C         -5.12448        4.87190        3.83058
C         -1.57439        6.35122        4.07808
C         -1.54347        6.35138        5.48248
C         -0.46248        6.89473        6.17941
C          0.63472        7.45687        5.50671
C          0.60679        7.44136        4.10386
C         -0.47241        6.89643        3.40333
O          0.22180       -5.81791        3.38373
C          1.03963       -7.19655        8.00271
C          1.15252       -6.02851        8.82364
N          1.28361       -5.12728        9.55407
Cl         0.89235      -11.31605        2.25849
Cl         1.28589      -12.33392        5.30535
C         -4.99765       -3.42560       -0.55166
C         -8.12762        6.48317        5.59990
C          1.78966        8.08490        6.26645
C         -5.18697       12.86474       -2.58847
C         -5.37738       11.67559       -3.36352
N         -5.57551       10.75666       -4.05585
O         -3.97399       11.61926        1.98374
Cl        -4.51841       17.15719        2.99013
Cl        -5.18042       18.08087       -0.03919
C          1.33852       -8.38168        8.74751
N          1.58483       -9.30197        9.42206
C         -5.52862       14.03119       -3.34435
N         -5.81507       14.93372       -4.02701
H         -4.16198       14.32609        2.97077
H         -5.19879       15.81707       -1.67382
H         -4.04914       10.37889       -1.95717
H         -3.36639        8.16549       -2.14580
H         -2.23975        3.44984        5.14937
H         -1.67853        2.30083        0.27208
H         -0.81303       -2.50163        7.54535
H         -0.09195       -4.70738        7.35455
H          1.13940      -10.12412        7.00500
H          0.51440       -8.48829        2.33534
H         -4.91265        3.93453        3.33197
H         -0.48030        6.88024        7.26468
H         -2.36856        5.93431        6.04605
H          1.43673        7.85924        3.54311
H         -0.43942        6.89827        2.32114
H         -7.14468        4.28838        4.24468
H         -5.98026        8.20429        5.58534
H         -3.74271        7.84896        4.68546
H         -0.37872        0.21401       -0.56661
H          1.82449        0.47796       -1.57625
H          1.42068        0.20644        3.34362
H          3.62206        0.44959        2.32911
H         -3.83820        0.39050        1.90992
H         -5.45395       -1.09365        0.85005
H         -2.25933       -3.68426       -0.40328
H         -0.63943       -2.19927        0.64955
H         -8.49282        7.49623        5.41223
H         -8.85645        5.78000        5.19173
H         -8.10357        6.34118        6.68611
H          2.72818        7.99801        5.71407
H          1.60669        9.15180        6.43665
H          1.92831        7.61648        7.24361
H         -4.72105       -4.47645       -0.43538
H         -6.00071       -3.29362       -0.14050
H         -5.05130       -3.21831       -1.62630
H          4.23179        1.08703       -1.32245
H          4.95472        1.21019        0.28632
H          4.74956       -0.36934       -0.47127
                                                   
  eps=4.88617                                      
  epsinf=4.88617                                   
  RSolv=8.36                                       
                                                   

