%mem=1000MW
%nprocshared=40
#p wB97XD/6-31g** nosymm pop=esp opt td=(nstates=2,root=1) scf=(MaxCycle=20000) iop(3/107=0016000000,3/108=0016000000) SCRF=(PCM,Solvent=Generic,Read)

 Y6 opt-TDdft

0 1
C          0.02844        0.50911        0.08831
C          0.12324        0.27552        1.46589
C          1.33013        0.54832        2.13664
C          2.46010        1.02818        1.47979
C          2.35714        1.25252        0.11298
C          1.15168        1.00164       -0.56679
C         -0.85337       -0.26253        2.44406
C         -0.26309       -0.09499        3.78217
C          1.17046        0.27155        3.58760
C         -0.97982       -0.07193        4.95741
C         -0.63299        0.06386        6.33694
S          0.99986       -0.07643        7.01333
C          0.36554        0.02804        8.62027
C         -1.03018        0.20868        8.62077
C         -1.61610        0.23129        7.34305
S         -1.72203        0.37476       10.24346
C         -0.11892        0.20234       10.91304
C          0.88437        0.03582        9.93485
N          2.11187       -0.11773       10.54298
C          1.90304       -0.01855       11.91927
C          0.49724        0.13610       12.16718
C          2.81242       -0.01343       13.00388
C          2.31871       -0.14682       14.35298
C          0.90300       -0.10120       14.61210
C         -0.01086        0.11204       13.51363
N          4.20235        0.07291       13.03561
C          4.59050       -0.07526       14.35230
C          3.43780       -0.21763       15.17639
C          5.78265       -0.08650       15.08051
C          5.54223       -0.24835       16.46568
S          3.82272       -0.38260       16.87133
C          6.69712       -0.28114       17.27102
C          7.84808       -0.12089       16.48704
S          7.49282        0.01530       14.76461
N         -1.28231        0.20505       13.88349
S         -1.31015        0.02467       15.52821
N          0.31071       -0.17396       15.79736
C          9.25079       -0.18583       16.91840
C         10.03336        0.88876       17.27318
C         11.41496        0.93650       17.69217
C         11.74789        2.34793       17.97154
C         10.61769        3.16339       17.73250
C          9.49977        2.30029       17.28788
C         10.62091        4.54099       17.90799
C         11.80310        5.13651       18.34029
C         12.93397        4.34818       18.58255
C         12.93089        2.96423       18.40691
F         14.06415        4.95149       18.99959
F         11.86924        6.47290       18.52912
C         12.31414       -0.16191       17.81951
C         13.66683       -0.03821       18.23495
N         14.78847        0.00223       18.57105
O          8.36884        2.66322       16.99366
C          6.70901       -0.44692       18.76859
C          5.06937        0.71817       12.03514
C          3.24868       -0.76509        9.86780
C         -3.09574        0.40957        7.09902
O          2.04356        0.36412        4.43793
C         -2.02877       -0.91843        2.13069
C         -2.54326       -1.03985        0.79870
N         -3.01633       -1.16574       -0.25892
F          3.40354        1.72063       -0.57925
F          1.09421        1.24924       -1.88186
C         11.96706       -1.51065       17.54176
N         11.73702       -2.63985       17.32684
C         -2.82908       -1.62656        3.08708
N         -3.50815       -2.24718        3.80268
H         13.84211        2.42542       18.61410
H          9.73978        5.13994       17.71853
H          9.66572       -1.18582       16.92614
H          7.72984       -0.50030       19.14288
H          6.18775       -1.36169       19.06281
H          6.21204        0.39717       19.25430
H          5.63905        1.50845       12.52152
H          4.45362        1.18108       11.27115
H          5.75238        0.00067       11.58392
H          2.87035       -1.54258        9.20597
H          3.88125       -1.24585       10.60688
H          3.82721       -0.04691        9.28903
H         -3.29044        1.12946        6.30291
H         -3.59227        0.77909        7.99559
H         -3.56543       -0.53879        6.82932
H         -2.05235       -0.14885        4.83131
H          3.38653        1.22523        2.00198
H         -0.86894        0.34513       -0.48750

  eps=3.36
  epsinf=3.36
  RSolv=7.28

