%mem=800MW
%nprocshared=40
%chk=IEICO-4F-TDDFT-S1toT1-Triplet.chk
#p wB97XD/6-31g** td=(triplet,nstates=2) scf=(MaxCycle=20000) iop(3/107=0000400000,3/108=0000400000) SCRF=(PCM,Solvent=Generic,Read)

IEICO4F

0  1
C              12.2930700000     -0.8338600000      9.7779600000
C              12.6690400000      0.0441300000      8.7528100000
C              13.9657100000     -0.0522000000      8.2134900000
C              14.8961100000     -0.9922500000      8.6437600000
C              14.5080200000     -1.8631200000      9.6579900000
C              13.2238400000     -1.7745600000     10.2156300000
C              14.1364400000      0.9902300000      7.1680200000
C              12.8523900000      1.7348300000      7.0918500000
C              11.9331500000      1.1382200000      8.0580500000
C              12.5765400000      2.8141700000      6.2576400000
C              13.3021600000      3.5435100000      5.2789100000
C              12.6961300000      4.6168300000      4.5932600000
C              13.5269100000      5.2457700000      3.6623200000
C              14.8287300000      4.6807900000      3.5984600000
S              14.9619300000      3.3333100000      4.7269300000
C              15.9310600000      5.0734800000      2.7918600000
C              17.2224400000      4.4971600000      2.7828700000
C              18.0875700000      5.1202100000      1.8906300000
C              17.4936900000      6.1797200000      1.1878600000
S              15.8341700000      6.4218200000      1.6301600000
C              18.4145800000      6.7917400000      0.2958300000
C              19.6555100000      6.0753200000      0.4092500000
C              19.5395500000      4.9194200000      1.4371600000
C              20.7584400000      6.4674600000     -0.3156200000
C              20.6259900000      7.5818000000     -1.1812600000
C              19.3784900000      8.2840800000     -1.3120500000
C              18.2798800000      7.9014800000     -0.5756600000
C              19.5062200000      9.4673500000     -2.3061800000
C              20.9918500000      9.3395600000     -2.6703200000
C              21.5649100000      8.2332200000     -2.0255000000
S              23.2317500000      8.0079200000     -2.4503800000
C              23.1674100000      9.4317900000     -3.5208900000
C              21.8783900000     10.0125700000     -3.5029300000
C              18.6931300000      9.2720300000     -3.6147800000
C              18.5410800000     10.3447200000     -4.5123000000
C              17.8972100000     10.1757300000     -5.7374600000
C              17.3774200000      8.9275400000     -6.1251900000
C              17.5343200000      7.8604300000     -5.2305300000
C              18.1827500000      8.0259800000     -4.0010000000
C              16.6668500000      8.7569300000     -7.4564600000
C              19.1588400000     10.7772300000     -1.5535700000
C              17.8443700000     11.2683600000     -1.5272600000
C              17.5149800000     12.4086900000     -0.7894300000
C              18.4815600000     13.1021400000     -0.0444800000
C              19.7935300000     12.6011800000     -0.0647800000
C              20.1258700000     11.4611000000     -0.7999700000
C              24.2882500000      9.8742000000     -4.2745300000
S              24.1781500000     11.2910600000     -5.3170400000
C              25.8520900000     11.1220800000     -5.8385600000
C              26.4446300000     10.0073600000     -5.2092900000
C              25.5924600000      9.3156400000     -4.3441700000
C              19.6367200000      3.5083000000      0.7959800000
C              19.4462800000      3.2996600000     -0.5770400000
C              19.4569000000      2.0110300000     -1.1206800000
C              19.6518700000      0.8791000000     -0.3156200000
C              19.8255900000      1.0905700000      1.0627500000
C              19.8155900000      2.3749100000      1.6082200000
C              20.5834200000      5.1581500000      2.5581500000
C              20.2941100000      5.9733500000      3.6633400000
C              21.2614400000      6.2398300000      4.6356100000
C              22.5591000000      5.7123000000      4.5409400000
C              22.8492200000      4.9093600000      3.4264900000
C              21.8837000000      4.6389600000      2.4536700000
C              26.5982500000     11.9164600000     -6.7490000000
C              26.3339900000     13.0434400000     -7.5220300000
C              25.0414300000     13.7735400000     -7.5960000000
C              25.2188500000     14.8586500000     -8.5955200000
C              26.5318900000     14.8102900000     -9.1003200000
C              27.2706700000     13.7040800000     -8.4280400000
C              26.9173400000     15.7370500000    -10.0779300000
C              25.9787900000     16.6749500000    -10.5053200000
C              24.6777400000     16.7143600000     -9.9823700000
C              24.2808300000     15.7960200000     -9.0145800000
O              25.8784600000      8.2239900000     -3.6080900000
C              27.1996100000      7.6576000000     -3.6792200000
O              24.0125600000     13.5444600000     -6.9697600000
C              28.6222200000     13.4146800000     -8.6490100000
C              29.3701300000     12.3941300000     -7.9812700000
N              30.0564900000     11.5907700000     -7.4824100000
C              18.1208500000     14.3309300000      0.7722800000
C              19.7066900000     -0.5175700000     -0.9094400000
C              23.6132000000      6.0205300000      5.5902600000
O              13.2233800000      6.2857800000      2.8614000000
C              11.9065700000      6.8626200000      2.9293300000
C              10.5990800000      1.4743600000      8.3160900000
C               9.7796100000      0.8238400000      9.2917600000
N               9.0442100000      0.3488100000     10.0651100000
O              15.1546100000      1.1805800000      6.5121000000
C              29.4559800000     14.1234200000     -9.5704900000
N              30.2032700000     14.6469800000    -10.2998500000
C               9.8573800000      2.4956700000      7.6424700000
N               9.1768100000      3.3042100000      7.1440300000
H              15.8860900000     -1.0559300000      8.2122400000
H              11.3255700000     -0.8253900000     10.2532300000
H              11.6749900000      4.9065400000      4.7888600000
H              11.9014300000      7.6593900000      2.1900800000
H              11.7176600000      7.2795100000      3.9206800000
H              11.1453800000      6.1223000000      2.6751800000
H              17.4920200000      3.6665500000      3.4167000000
H              19.2842900000      4.1385400000     -1.2414400000
H              19.3099800000      1.8933900000     -2.1896700000
H              19.9715400000      0.2427600000      1.7247600000
H              19.9560300000      2.4887700000      2.6759300000
H              19.3088900000      6.4077800000      3.7789700000
H              20.9942500000      6.8672000000      5.4802500000
H              22.1519000000      4.0046100000      1.6179300000
H              23.8395900000      4.4796800000      3.3129200000
H              21.1507600000     11.1115700000     -0.7805200000
H              20.5727900000     13.1066700000      0.4970700000
H              17.0656400000     10.7712200000     -2.0923000000
H              16.4884400000     12.7616200000     -0.8027900000
H              18.9238500000     11.3251900000     -4.2568000000
H              17.8014000000     11.0292000000     -6.4014100000
H              18.2855100000      7.1663200000     -3.3517400000
H              17.1490400000      6.8788200000     -5.4880000000
H              17.3389500000      8.4276300000     -0.6521900000
H              21.7038600000      5.9510900000     -0.2291000000
H              21.6284900000     10.8884700000     -4.0811800000
H              17.9497700000     14.0652200000      1.8215600000
H              17.2103800000     14.8058900000      0.4007300000
H              18.9217800000     15.0741000000      0.7512300000
H              15.7034400000      9.2779900000     -7.4555100000
H              16.4753400000      7.7052000000     -7.6777000000
H              17.2590400000      9.1718200000     -8.2772200000
H              27.4722600000      9.7348200000     -5.3957700000
H              27.8975400000     15.7687700000    -10.5252000000
H              23.2780700000     15.8214600000     -8.6094700000
H              27.1885100000      6.8099100000     -2.9989200000
H              27.9492400000      8.3808200000     -3.3516200000
H              27.4187000000      7.3137900000     -4.6921900000
H              19.1578100000     -0.5762000000     -1.8518500000
H              19.2874400000     -1.2597200000     -0.2256800000
H              20.7430500000     -0.8098300000     -1.1135100000
H              23.1697800000      6.1207100000      6.5838700000
H              24.1225500000      6.9641000000      5.3636900000
H              24.3747700000      5.2391400000      5.6363000000
H              11.5816900000      3.2241400000      6.3573700000
H              27.5975600000     11.5179600000     -6.8501300000
F              23.8178900000     17.6481000000    -10.4278300000
F              26.3268400000     17.5718800000    -11.4454000000
F              12.8848600000     -2.6264200000     11.1997600000
F              15.3600000000     -2.7980500000     10.1160300000
 
 eps=4.99
 epsinf=4.99
 RSolv=7.92
 
