%mem=1000MW
%nprocshared=40
%Oldchk=IEICO-4F-TDDFT-S1toT1-singlet.chk
%chk=IEICO-4F-NTO-S1.chk
#p wB97XD/6-31g** Geom=AllCheck Guess=(Read,Only) Density=(Check,Transition=1) Pop=(Minimal,NTO,SaveNTO)

0 1
