%mem=800MW
%nprocshared=32
%chk=IT-4Cl-HSO-scan-60-T2fromS1.chk
%rwf=IT-4Cl-HSO-scan-60-T2fromS1.rwf
#p wB97XD/6-31g** td(50-50,nstates=5) 6D 10F nosymm GFInput scf=(MaxCycle=20000) iop(3/107=0001100000,3/108=0001100000) SCRF=(PCM,Solvent=Generic,Read)

 HSO

0 1
C              -0.0368400000     -0.4055100000     -0.4169300000
C               0.0322300000     -0.2303400000      0.9728800000
C               1.3061200000     -0.1765700000      1.5623400000
C               2.4624600000     -0.2711800000      0.7858800000
C               2.3974100000     -0.4293500000     -0.6087900000
C               1.1230000000     -0.4985200000     -1.1912100000
C              -1.2525600000     -0.2230100000      1.8408600000
C              -2.5133500000      0.1740500000      1.0620700000
C              -3.4207600000     -0.9034500000      1.0087200000
C              -2.8941500000     -2.0539500000      1.6490400000
C              -1.6028800000     -1.6959300000      2.1739600000
S              -4.9191600000     -0.5393700000      0.1808400000
C              -4.3278500000      1.0953300000     -0.1106500000
C              -3.0303000000      1.3099400000      0.4301700000
C              -4.8672600000      2.2015300000     -0.7530100000
C              -3.9962100000      3.3198600000     -0.7371300000
S              -2.4787200000      2.9353200000      0.1056500000
C              -0.8391400000     -2.6228400000      2.8436300000
C              -1.3673000000     -3.9297800000      2.9985500000
C              -2.6614700000     -4.2863200000      2.4798600000
C              -3.4235000000     -3.3602200000      1.8066900000
C              -0.8293400000     -5.0865800000      3.6171400000
C              -1.7019600000     -6.1869000000      3.4957200000
C              -2.9875500000     -5.7753500000      2.7663400000
S               0.6543500000     -5.4381300000      4.4758000000
C               0.1090600000     -7.1018200000      4.6788900000
C              -1.1709400000     -7.3298600000      4.1031700000
S              -1.6649600000     -8.9919600000      4.3161900000
C              -0.1581300000     -9.3660800000      5.1832800000
C               0.6718800000     -8.2206800000      5.2777100000
C              -4.4023900000      4.5514300000     -1.3178900000
C              -3.8046500000      5.7949500000     -1.5000900000
C              -2.3814200000      6.1401800000     -1.2335200000
C              -2.1596500000      7.4897800000     -1.8193000000
C              -3.3683000000      7.9672900000     -2.3578600000
C              -4.4383100000      6.9627000000     -2.1070800000
C              -0.9786100000      8.2133400000     -1.8724400000
C              -0.9901500000      9.4655000000     -2.5020200000
C              -2.1886600000      9.9549600000     -3.0592600000
C              -3.3798500000      9.2149700000     -2.9872800000
Cl              0.4998000000     10.3794600000     -2.5741300000
Cl             -2.2433000000     11.5064100000     -3.8676400000
O              -1.5346000000      5.4614900000     -0.6662000000
C              -5.7993800000      7.1709400000     -2.3490400000
C              -6.3322800000      8.3339100000     -2.9888100000
N              -6.8411800000      9.2469600000     -3.5096300000
C              -1.1738700000      0.6834800000      3.0993100000
C              -0.5087900000      1.9203100000      3.0545000000
C              -0.5098100000      2.7789200000      4.1549100000
C              -1.1787800000      2.4440000000      5.3441600000
C              -1.8519100000      1.2135900000      5.3809100000
C              -1.8542600000      0.3518600000      4.2805000000
C              -3.1826300000     -6.4876300000      1.4037800000
C              -4.4372700000     -6.5094400000      0.7734900000
C              -4.5969400000     -7.0735800000     -0.4939900000
C              -3.5127400000     -7.6367300000     -1.1865100000
C              -2.2578900000     -7.6005100000     -0.5588200000
C              -2.0938600000     -7.0340300000      0.7076600000
C              -4.1675400000     -5.9541900000      3.7612500000
C              -4.8776100000     -7.1645300000      3.8326400000
C              -5.8765900000     -7.3581300000      4.7882600000
C              -6.2060900000     -6.3567500000      5.7169500000
C              -5.4883500000     -5.1532800000      5.6488000000
C              -4.4862700000     -4.9563500000      4.6946900000
C               0.2535200000    -10.5956400000      5.7653400000
C              -0.2787700000    -11.8797400000      5.8308400000
C              -1.4979700000    -12.3687700000      5.1312300000
C              -1.5248000000    -13.8448800000      5.3125200000
C              -0.4297900000    -14.2349500000      6.1048000000
C               0.3271600000    -13.0198400000      6.5152200000
C              -0.2385800000    -15.5940800000      6.3675100000
C              -1.1473500000    -16.5264500000      5.8419800000
C              -2.2480400000    -16.1146500000      5.0640300000
C              -2.4370200000    -14.7518900000      4.7965400000
C              -3.6953600000     -8.2841900000     -2.5478300000
C              -7.3061900000     -6.5719500000      6.7412800000
O              -2.3225100000    -11.7123200000      4.5077700000
C               1.3701200000    -13.0098100000      7.4461600000
C               1.9191100000    -14.1859000000      8.0474000000
N               2.4226400000    -15.0978200000      8.5753400000
Cl             -0.8645100000    -18.2195600000      6.1845000000
Cl             -3.3942800000    -17.2625500000      4.4090600000
C              -1.1520300000      3.3720400000      6.5456100000
C               3.6598500000     -0.4925900000     -1.4500600000
C               1.9904900000    -11.8294900000      7.9655500000
N               2.5346500000    -10.9158800000      8.4489100000
C              -6.8450200000      6.2823500000     -1.9428400000
N              -7.7551700000      5.6206900000     -1.6294600000
H              -0.0683800000      7.8204300000     -1.4408000000
H              -4.2678700000      9.6344400000     -3.4307200000
H              -5.4033300000      4.4633900000     -1.7181900000
H              -5.8426500000      2.2343400000     -1.2164100000
H               0.1334000000     -2.3729000000      3.2420600000
H              -4.3939800000     -3.6108400000      1.4034900000
H               1.6322000000     -8.2403900000      5.7722600000
H               1.2157800000    -10.4766200000      6.2440700000
H               0.5883000000    -15.9622500000      6.9521500000
H              -3.2736000000    -14.4177800000      4.1981100000
H              -2.3968000000     -0.5815600000      4.3573900000
H               3.4284200000     -0.2171200000      1.2778800000
H               1.4080600000     -0.0511700000      2.6329500000
H               1.0248500000     -0.6275200000     -2.2642100000
H              -0.9973300000     -0.4767100000     -0.9119200000
H              -2.3860000000      0.9168600000      6.2778800000
H               0.0171600000      3.7246200000      4.0798400000
H               0.0246900000      2.2209700000      2.1624200000
H              -5.3050100000     -6.0927600000      1.2692200000
H              -5.5838900000     -7.0747400000     -0.9453900000
H              -1.1033500000     -7.0195600000      1.1446700000
H              -1.3910100000     -8.0192400000     -1.0598200000
H              -3.9555300000     -4.0130000000      4.6930600000
H              -5.7065800000     -4.3546100000      6.3504000000
H              -6.4023800000     -8.3073000000      4.8086800000
H              -4.6633400000     -7.9645800000      3.1364300000
H              -1.3190900000      4.4111200000      6.2496300000
H              -1.9145400000      3.1028500000      7.2789100000
H              -0.1792900000      3.3288500000      7.0476600000
H               3.4762000000     -0.9648200000     -2.4172600000
H               4.0483800000      0.5137800000     -1.6418900000
H               4.4491400000     -1.0541800000     -0.9436600000
H              -7.2039200000     -7.5433300000      7.2328400000
H              -7.2943100000     -5.8000500000      7.5128700000
H              -8.2919400000     -6.5507100000      6.2642200000
H              -4.5472600000     -7.8588600000     -3.0827700000
H              -2.8068000000     -8.1613800000     -3.1714500000
H              -3.8758800000     -9.3597800000     -2.4423400000

  eps=4.88617
  epsinf=4.88617
  RSolv=8.36
 
