%mem=1000MW
%nprocshared=40
#p wB97XD/6-31g** nosymm pop=esp opt td=(nstates=2,root=1) scf=(MaxCycle=20000) iop(3/107=0001100000,3/108=0001100000) SCRF=(PCM,Solvent=Generic,Read)

 IT-4Cl opt-TDdft

0 1
C         -0.04156       -0.30591       -0.22024
C         -0.01932       -0.16173        1.17467
C          1.23490       -0.10392        1.80491
C          2.41620       -0.16654        1.06348
C          2.39755       -0.29616       -0.33553
C          1.14301       -0.36768       -0.95912
C         -1.33164       -0.19628        2.00189
C         -2.57208        0.18343        1.18353
C         -3.43741       -0.92163        1.05341
C         -2.90584       -2.07028        1.69376
C         -1.65571       -1.68421        2.29302
S         -4.90236       -0.58371        0.15891
C         -4.35990        1.07948       -0.05532
C         -3.10035        1.31938        0.56362
C         -4.92155        2.17712       -0.70027
C         -4.10643        3.32286       -0.60008
S         -2.62237        2.97716        0.33265
C         -0.90002       -2.60008        2.98665
C         -1.39494       -3.92470        3.09114
C         -2.64730       -4.31013        2.49660
C         -3.40106       -3.39497        1.79917
C         -0.85568       -5.07619        3.71899
C         -1.68768       -6.19857        3.53423
C         -2.94132       -5.81321        2.73864
S          0.58951       -5.39914        4.65100
C          0.08239       -7.08030        4.80141
C         -1.15798       -7.33512        4.15445
S         -1.61996       -9.01067        4.32450
C         -0.15055       -9.35722        5.26445
C          0.64293       -8.19202        5.41537
C         -4.30125        4.66209       -1.02920
C         -5.18333        5.21918       -1.95555
C         -5.90504        4.50514       -3.05328
C         -6.35948        5.56541       -3.99935
C         -6.02144        6.83127       -3.48717
C         -5.35804        6.64999       -2.16904
C         -7.00956        5.40215       -5.21251
C         -7.33141        6.54522       -5.95834
C         -6.99742        7.82081       -5.46098
C         -6.34741        7.97112       -4.22528
Cl        -8.13895        6.33949       -7.49670
Cl        -7.37779        9.27236       -6.36226
O         -6.07481        3.30303       -3.20849
C         -5.05623        7.67443       -1.26731
C         -5.18347        9.06712       -1.56564
N         -5.25229       10.21906       -1.74516
C         -1.31356        0.68675        3.27791
C         -0.65704        1.92877        3.28685
C         -0.70920        2.76342        4.40439
C         -1.42444        2.39898        5.55750
C         -2.09090        1.16457        5.53932
C         -2.04144        0.32648        4.42188
C         -3.03224       -6.50700        1.35480
C         -4.24961       -6.57266        0.65780
C         -4.31744       -7.12345       -0.62353
C         -3.17392       -7.62728       -1.26472
C         -1.95658       -7.54437       -0.57145
C         -1.88458       -6.99167        0.70982
C         -4.17242       -6.05051        3.65556
C         -4.83214       -7.29096        3.67156
C         -5.88399       -7.53663        4.55516
C         -6.31971       -6.55947        5.46578
C         -5.65132       -5.32619        5.45480
C         -4.59664       -5.07687        4.57205
C          0.26375      -10.58319        5.85204
C         -0.24281      -11.87868        5.88540
C         -1.42726      -12.38437        5.13967
C         -1.43954      -13.86082        5.31804
C         -0.36818      -14.23724        6.14799
C          0.35863      -13.01263        6.58493
C         -0.16972      -15.59387        6.41821
C         -1.04816      -16.53746        5.86219
C         -2.12537      -16.13937        5.04500
C         -2.32155      -14.77920        4.77033
C         -3.25731       -8.26339       -2.64095
C         -7.47588       -6.83327        6.41102
O         -2.23777      -11.73880        4.48711
C          1.37357      -12.99305        7.54547
C          1.91809      -14.16456        8.16014
N          2.41672      -15.07149        8.70100
Cl        -0.75794      -18.22659        6.21736
Cl        -3.23430      -17.30107        4.35183
C         -1.45345        3.30248        6.77734
C          3.68590       -0.33017       -1.13825
C          1.96911      -11.80804        8.08326
N          2.49287      -10.89118        8.58253
C         -4.65139        7.45827        0.08887
N         -4.34473        7.36406        1.21183
H         -7.26081        4.41639       -5.57942
H         -6.11064        8.96759       -3.88950
H         -3.61635        5.36638       -0.57284
H         -5.86816        2.18270       -1.21242
H          0.04179       -2.32813        3.44059
H         -4.34114       -3.66741        1.34174
H          1.57690       -8.19300        5.95856
H          1.20222      -10.44761        6.37164
H          0.63938      -15.95142        7.03349
H         -3.14013      -14.45547        4.14210
H         -2.58095       -0.61144        4.45518
H          3.36554       -0.11156        1.58679
H          1.30242       -0.00159        2.88071
H          1.08003       -0.47561       -2.03711
H         -0.98452       -0.37827       -0.74729
H         -2.66075        0.84586        6.40625
H         -0.18568        3.71347        4.37225
H         -0.08993        2.25180        2.42359
H         -5.15920       -6.20162        1.11293
H         -5.27887       -7.16206       -1.12565
H         -0.91953       -6.93919        1.19794
H         -1.04684       -7.91572       -1.03222
H         -4.10694       -4.11244        4.61372
H         -5.95030       -4.54442        6.14565
H         -6.36887       -8.50724        4.53233
H         -4.53688       -8.07452        2.98633
H         -1.64986        4.34114        6.49796
H         -2.22117        2.99358        7.48914
H         -0.49000        3.28247        7.29825
H          3.53770       -0.79175       -2.11666
H          4.06616        0.68380       -1.30517
H          4.46713       -0.88814       -0.61569
H         -7.35960       -7.80097        6.90684
H         -7.55521       -6.06572        7.18314
H         -8.42690       -6.85857        5.86811
H         -4.06283       -7.82764       -3.23631
H         -2.32296       -8.14305       -3.19388
H         -3.45359       -9.33819       -2.55757

  eps=4.88617
  epsinf=4.88617
  RSolv=8.36
 
