%mem=800MW
%nprocshared=32
%chk=IT-4Cl-HSO-scan-130-S1fromT2.chk
%rwf=IT-4Cl-HSO-scan-130-S1fromT2.rwf
#p wB97XD/6-31g** td(50-50,nstates=5) 6D 10F nosymm GFInput scf=(MaxCycle=20000) iop(3/107=0001100000,3/108=0001100000) SCRF=(PCM,Solvent=Generic,Read)

 HSO

0 1
C               0.1794600000     -0.3145800000     -0.1979600000
C               0.1656600000     -0.1852400000      1.1984300000
C               1.4033500000     -0.1712700000      1.8631900000
C               2.6029900000     -0.2649200000      1.1552300000
C               2.6204100000     -0.3831300000     -0.2446000000
C               1.3823000000     -0.4081400000     -0.9035900000
C              -1.1680700000     -0.1883600000      1.9929000000
C              -2.3805500000      0.2141300000      1.1406600000
C              -3.2572100000     -0.8611700000      0.9895100000
C              -2.7534000000     -2.0390700000      1.6579500000
C              -1.5306200000     -1.6684900000      2.2832900000
S              -4.6962700000     -0.5039600000      0.0694700000
C              -4.1243600000      1.1498800000     -0.1374300000
C              -2.8758500000      1.3657200000      0.5050600000
C              -4.6536600000      2.2568200000     -0.7931700000
C              -3.8147900000      3.3908700000     -0.6798300000
S              -2.3581300000      3.0139100000      0.2839100000
C              -0.8060500000     -2.6012000000      3.0094800000
C              -1.3216500000     -3.9070800000      3.0997300000
C              -2.5395700000     -4.2804500000      2.4647600000
C              -3.2645300000     -3.3462600000      1.7400700000
C              -0.8154600000     -5.0834800000      3.7630600000
C              -1.6476600000     -6.1852700000      3.5382000000
C              -2.8509900000     -5.7859400000      2.6719200000
S               0.5710800000     -5.4153200000      4.7718400000
C               0.0369800000     -7.0905000000      4.9068400000
C              -1.1688500000     -7.3292300000      4.1948000000
S              -1.6677300000     -8.9993400000      4.3475000000
C              -0.2574700000     -9.3667600000      5.3655600000
C               0.5482000000     -8.2047800000      5.5541100000
C              -3.9772400000      4.7261300000     -1.1144600000
C              -4.8524300000      5.2914300000     -2.0527100000
C              -5.5342800000      4.5773300000     -3.1845400000
C              -6.0118300000      5.6436000000     -4.1100200000
C              -5.7175100000      6.9059300000     -3.5650200000
C              -5.0534400000      6.7136100000     -2.2470800000
C              -6.6506800000      5.4888400000     -5.3306500000
C              -7.0075100000      6.6381600000     -6.0492600000
C              -6.7185600000      7.9111100000     -5.5178000000
C              -6.0783300000      8.0519100000     -4.2757300000
Cl             -7.8023400000      6.4443700000     -7.5957800000
Cl             -7.1435600000      9.3712800000     -6.3832900000
O              -5.6532100000      3.3748900000     -3.3667000000
C              -4.7674400000      7.7311500000     -1.3251400000
C              -4.9009600000      9.1257700000     -1.6072300000
N              -4.9745200000     10.2791600000     -1.7748400000
C              -1.1540200000      0.7008600000      3.2646700000
C              -0.4775500000      1.9321100000      3.2752700000
C              -0.5293500000      2.7746700000      4.3870500000
C              -1.2637500000      2.4286000000      5.5335100000
C              -1.9491600000      1.2048600000      5.5142500000
C              -1.8994700000      0.3587400000      4.4024400000
C              -2.8497100000     -6.4600000000      1.2733500000
C              -4.0122200000     -6.4832700000      0.4853500000
C              -3.9990300000     -7.0154900000     -0.8056800000
C              -2.8247100000     -7.5420400000     -1.3672400000
C              -1.6615600000     -7.5028400000     -0.5827600000
C              -1.6711700000     -6.9697800000      0.7087500000
C              -4.1426000000     -6.0403900000      3.4940000000
C              -4.8065600000     -7.2764800000      3.4275200000
C              -5.9192800000     -7.5421000000      4.2268400000
C              -6.4138100000     -6.5890000000      5.1326500000
C              -5.7420900000     -5.3596300000      5.2042500000
C              -4.6271300000     -5.0900000000      4.4047300000
C               0.1071900000    -10.5911300000      5.9751800000
C              -0.4259600000    -11.8845700000      5.9893700000
C              -1.5840500000    -12.3724100000      5.1795300000
C              -1.6476400000    -13.8434000000      5.3771600000
C              -0.6351000000    -14.2332200000      6.2718100000
C               0.1071100000    -13.0208600000      6.7204700000
C              -0.4996400000    -15.5880400000      6.5838800000
C              -1.3776800000    -16.5161100000      6.0004400000
C              -2.3919100000    -16.1046300000      5.1129700000
C              -2.5277800000    -14.7456200000      4.8002500000
C              -2.8188000000     -8.1591900000     -2.7545600000
C              -7.6346100000     -6.8846900000      5.9861000000
O              -2.3363900000    -11.7115700000      4.4775800000
C               1.0943300000    -13.0156900000      7.7205600000
C               1.6051200000    -14.1951200000      8.3454600000
N               2.0781200000    -15.1110200000      8.8948300000
Cl             -1.1673500000    -18.2037100000      6.4139500000
Cl             -3.4960400000    -17.2473900000      4.3801900000
C              -1.2926700000      3.3401700000      6.7476600000
C               3.9295800000     -0.4554400000     -1.0105900000
C               1.6853500000    -11.8421000000      8.2839200000
N               2.2040500000    -10.9365600000      8.8091300000
C              -4.3742200000      7.4988000000      0.0309200000
N              -4.0781000000      7.3926200000      1.1555500000
H              -6.8663300000      4.5047900000     -5.7237400000
H              -5.8780200000      9.0469900000     -3.9133500000
H              -3.2842800000      5.4230700000     -0.6593100000
H              -5.5924700000      2.2799700000     -1.3188200000
H               0.1252100000     -2.3397500000      3.4910600000
H              -4.1910800000     -3.6091100000      1.2502900000
H               1.4517000000     -8.2189100000      6.1462900000
H               1.0213000000    -10.4717000000      6.5394900000
H               0.2583100000    -15.9572800000      7.2548100000
H              -3.2997600000    -14.4103300000      4.1211800000
H              -2.4525600000     -0.5713400000      4.4347500000
H               3.5383200000     -0.2454400000      1.7058400000
H               1.4436000000     -0.0803600000      2.9414300000
H               1.3468100000     -0.5047300000     -1.9840700000
H              -0.7498700000     -0.3504800000     -0.7521700000
H              -2.5336800000      0.8999200000      6.3765100000
H               0.0100000000      3.7160100000      4.3558100000
H               0.1058400000      2.2403100000      2.4172700000
H              -4.9435000000     -6.0940900000      0.8773100000
H              -4.9214200000     -7.0206300000     -1.3779300000
H              -0.7443000000     -6.9536100000      1.2679600000
H              -0.7303500000     -7.8943000000     -0.9799000000
H              -4.1376200000     -4.1294800000      4.5051900000
H              -6.0864100000     -4.5962300000      5.8946500000
H              -6.4051900000     -8.5087600000      4.1410800000
H              -4.4658600000     -8.0410300000      2.7417100000
H              -1.4879500000      4.3772500000      6.4611500000
H              -2.0616100000      3.0370700000      7.4607000000
H              -0.3299100000      3.3231200000      7.2698900000
H               3.7940600000     -0.9071000000     -1.9955500000
H               4.3489800000      0.5456900000     -1.1607900000
H               4.6758000000     -1.0427500000     -0.4694000000
H              -7.5497400000     -7.8611100000      6.4712800000
H              -7.7730900000     -6.1323900000      6.7651200000
H              -8.5440300000     -6.9025900000      5.3756800000
H              -3.5954600000     -7.7278000000     -3.3900600000
H              -1.8564000000     -8.0166900000     -3.2518000000
H              -3.0016400000     -9.2381600000     -2.6976900000

  eps=4.88617
  epsinf=4.88617
  RSolv=8.36
 
