%mem=1000MW
%nprocshared=40
#p wB97XD/6-31g** nosymm pop=esp opt td=(nstates=2,root=1) scf=(MaxCycle=20000) iop(3/107=0001100000,3/108=0001100000) SCRF=(PCM,Solvent=Generic,Read)

 IT-4Cl opt-TDdft

0 1
C         -0.04372       -0.39877       -0.41571
C          0.01937       -0.22720        0.97483
C          1.29139       -0.17499        1.56840
C          2.45105       -0.26843        0.79627
C          2.39147       -0.42404       -0.59863
C          1.11903       -0.49142       -1.18569
C         -1.26829       -0.22112        1.83935
C         -2.52851        0.17690        1.05575
C         -3.43159       -0.88827        1.00186
C         -2.89623       -2.05713        1.65840
C         -1.62039       -1.69401        2.17376
S         -4.92909       -0.53103        0.17763
C         -4.34207        1.10417       -0.12051
C         -3.04678        1.31738        0.41988
C         -4.87997        2.20712       -0.76780
C         -4.00365        3.32991       -0.75560
S         -2.48922        2.94176        0.08922
C         -0.84736       -2.62714        2.84739
C         -1.37150       -3.92317        3.00218
C         -2.65021       -4.28481        2.49296
C         -3.42031       -3.35316        1.81339
C         -0.82062       -5.10093        3.62837
C         -1.68855       -6.18951        3.50547
C         -2.97633       -5.77501        2.77697
S          0.66115       -5.44499        4.48539
C          0.12245       -7.11083        4.69033
C         -1.15548       -7.33741        4.11525
S         -1.65000       -9.00240        4.32316
C         -0.14431       -9.38121        5.18835
C          0.68790       -8.22910        5.28542
C         -4.40657        4.55563       -1.33894
C         -3.80393        5.80363       -1.52198
C         -2.36947        6.14105       -1.26804
C         -2.14804        7.49276       -1.84556
C         -3.36134        7.97853       -2.36527
C         -4.43086        6.97248       -2.11423
C         -0.96539        8.21379       -1.90326
C         -0.97994        9.47270       -2.51814
C         -2.18384        9.97143       -3.05467
C         -3.37650        9.23371       -2.97830
Cl         0.51206       10.38326       -2.59799
Cl        -2.24456       11.53324       -3.84181
O         -1.52558        5.45188       -0.71284
C         -5.79940        7.18270       -2.34898
C         -6.33171        8.33861       -2.99914
N         -6.83954        9.24663       -3.53005
C         -1.18684        0.68554        3.09797
C         -0.53099        1.92705        3.04815
C         -0.52884        2.78650        4.14823
C         -1.18537        2.44749        5.34295
C         -1.84825        1.21183        5.38565
C         -1.85267        0.34897        4.28579
C         -3.17334       -6.48690        1.41395
C         -4.42711       -6.50015        0.78167
C         -4.58990       -7.06323       -0.48617
C         -3.50945       -7.63415       -1.17761
C         -2.25525       -7.60724       -0.54812
C         -2.08855       -7.04247        0.71884
C         -4.16014       -5.95503        3.76771
C         -4.86419       -7.16864        3.84188
C         -5.86651       -7.36400        4.79405
C         -6.20618       -6.36051        5.71638
C         -5.49577       -5.15299        5.64471
C         -4.49101       -4.95430        4.69346
C          0.26942      -10.60770        5.76341
C         -0.26578      -11.89741        5.82766
C         -1.48694      -12.38547        5.11667
C         -1.52180      -13.85930        5.30259
C         -0.43479      -14.24941        6.10538
C          0.32935      -13.03523        6.50813
C         -0.25872      -15.60676        6.38485
C         -1.17096      -16.53702        5.86083
C         -2.26108      -16.12534        5.06834
C         -2.43732      -14.76400        4.78778
C         -3.69477       -8.28026       -2.53938
C         -7.30996       -6.57675        6.73687
O         -2.30125      -11.72315        4.48932
C          1.38436      -13.02611        7.43531
C          1.95192      -14.20403        8.01220
N          2.47294      -15.11869        8.51837
Cl        -0.90542      -18.22824        6.22461
Cl        -3.40953      -17.27117        4.41273
C         -1.15525        3.37566        6.54451
C          3.65690       -0.48615       -1.43578
C          1.99482      -11.84770        7.96763
N          2.53228      -10.93677        8.46366
C         -6.84418        6.30486       -1.92150
N         -7.75542        5.65321       -1.59041
H         -0.05179        7.81361       -1.48558
H         -4.26812        9.66208       -3.40574
H         -5.40619        4.47044       -1.74255
H         -5.85442        2.24114       -1.23296
H          0.12594       -2.37283        3.24185
H         -4.38982       -3.60911        1.41065
H          1.64861       -8.25083        5.77901
H          1.23314      -10.49229        6.23937
H          0.55784      -15.97650        6.98290
H         -3.26696      -14.42875        4.18038
H         -2.38571       -0.58938        4.36791
H          3.41514       -0.21573        1.29225
H          1.38940       -0.05154        2.63965
H          1.02480       -0.61834       -2.25938
H         -1.00245       -0.46799       -0.91427
H         -2.37200        0.91105        6.28747
H         -0.00889        3.73580        4.06831
H         -0.00587        2.23054        2.15194
H         -5.29239       -6.07724        1.27652
H         -5.57648       -7.05678       -0.93854
H         -1.09866       -7.03612        1.15724
H         -1.39081       -8.03249       -1.04806
H         -3.96673       -4.00743        4.68795
H         -5.72266       -4.35174        6.34076
H         -6.38693       -8.31620        4.81637
H         -4.64305       -7.97025        3.14947
H         -1.32090        4.41516        6.24916
H         -1.91748        3.10779        7.27870
H         -0.18219        3.33067        7.04588
H          3.47707       -0.96003       -2.40298
H          4.04482        0.52043       -1.62798
H          4.44549       -1.04607       -0.92634
H         -7.20989       -7.54867        7.22785
H         -7.30014       -5.80576        7.50952
H         -8.29443       -6.55421        6.25711
H         -4.54827       -7.85499       -3.07187
H         -2.80786       -8.15556       -3.16513
H         -3.87390       -9.35627       -2.43540

  eps=4.88617
  epsinf=4.88617
  RSolv=8.36
 
