%mem=1000MW
%nprocshared=40
#p wB97XD/6-31g** nosymm pop=esp opt td=(triplet,nstates=3,root=2) scf=(MaxCycle=20000) iop(3/107=0001100000,3/108=0001100000) SCRF=(PCM,Solvent=Generic,Read)

 IT-4Cl opt-TDdft

0 1
C         -0.03684       -0.40551       -0.41693
C          0.03223       -0.23034        0.97288
C          1.30612       -0.17657        1.56234
C          2.46246       -0.27118        0.78588
C          2.39741       -0.42935       -0.60879
C          1.12300       -0.49852       -1.19121
C         -1.25256       -0.22301        1.84086
C         -2.51335        0.17405        1.06207
C         -3.42076       -0.90345        1.00872
C         -2.89415       -2.05395        1.64904
C         -1.60288       -1.69593        2.17396
S         -4.91916       -0.53937        0.18084
C         -4.32785        1.09533       -0.11065
C         -3.03030        1.30994        0.43017
C         -4.86726        2.20153       -0.75301
C         -3.99621        3.31986       -0.73713
S         -2.47872        2.93532        0.10565
C         -0.83914       -2.62284        2.84363
C         -1.36730       -3.92978        2.99855
C         -2.66147       -4.28632        2.47986
C         -3.42350       -3.36022        1.80669
C         -0.82934       -5.08658        3.61714
C         -1.70196       -6.18690        3.49572
C         -2.98755       -5.77535        2.76634
S          0.65435       -5.43813        4.47580
C          0.10906       -7.10182        4.67889
C         -1.17094       -7.32986        4.10317
S         -1.66496       -8.99196        4.31619
C         -0.15813       -9.36608        5.18328
C          0.67188       -8.22068        5.27771
C         -4.40239        4.55143       -1.31789
C         -3.80465        5.79495       -1.50009
C         -2.38142        6.14018       -1.23352
C         -2.15965        7.48978       -1.81930
C         -3.36830        7.96729       -2.35786
C         -4.43831        6.96270       -2.10708
C         -0.97861        8.21334       -1.87244
C         -0.99015        9.46550       -2.50202
C         -2.18866        9.95496       -3.05926
C         -3.37985        9.21497       -2.98728
Cl         0.49980       10.37946       -2.57413
Cl        -2.24330       11.50641       -3.86764
O         -1.53460        5.46149       -0.66620
C         -5.79938        7.17094       -2.34904
C         -6.33228        8.33391       -2.98881
N         -6.84118        9.24696       -3.50963
C         -1.17387        0.68348        3.09931
C         -0.50879        1.92031        3.05450
C         -0.50981        2.77892        4.15491
C         -1.17878        2.44400        5.34416
C         -1.85191        1.21359        5.38091
C         -1.85426        0.35186        4.28050
C         -3.18263       -6.48763        1.40378
C         -4.43727       -6.50944        0.77349
C         -4.59694       -7.07358       -0.49399
C         -3.51274       -7.63673       -1.18651
C         -2.25789       -7.60051       -0.55882
C         -2.09386       -7.03403        0.70766
C         -4.16754       -5.95419        3.76125
C         -4.87761       -7.16453        3.83264
C         -5.87659       -7.35813        4.78826
C         -6.20609       -6.35675        5.71695
C         -5.48835       -5.15328        5.64880
C         -4.48627       -4.95635        4.69469
C          0.25352      -10.59564        5.76534
C         -0.27877      -11.87974        5.83084
C         -1.49797      -12.36877        5.13123
C         -1.52480      -13.84488        5.31252
C         -0.42979      -14.23495        6.10480
C          0.32716      -13.01984        6.51522
C         -0.23858      -15.59408        6.36751
C         -1.14735      -16.52645        5.84198
C         -2.24804      -16.11465        5.06403
C         -2.43702      -14.75189        4.79654
C         -3.69536       -8.28419       -2.54783
C         -7.30619       -6.57195        6.74128
O         -2.32251      -11.71232        4.50777
C          1.37012      -13.00981        7.44616
C          1.91911      -14.18590        8.04740
N          2.42264      -15.09782        8.57534
Cl        -0.86451      -18.21956        6.18450
Cl        -3.39428      -17.26255        4.40906
C         -1.15203        3.37204        6.54561
C          3.65985       -0.49259       -1.45006
C          1.99049      -11.82949        7.96555
N          2.53465      -10.91588        8.44891
C         -6.84502        6.28235       -1.94284
N         -7.75517        5.62069       -1.62946
H         -0.06838        7.82043       -1.44080
H         -4.26787        9.63444       -3.43072
H         -5.40333        4.46339       -1.71819
H         -5.84265        2.23434       -1.21641
H          0.13340       -2.37290        3.24206
H         -4.39398       -3.61084        1.40349
H          1.63220       -8.24039        5.77226
H          1.21578      -10.47662        6.24407
H          0.58830      -15.96225        6.95215
H         -3.27360      -14.41778        4.19811
H         -2.39680       -0.58156        4.35739
H          3.42842       -0.21712        1.27788
H          1.40806       -0.05117        2.63295
H          1.02485       -0.62752       -2.26421
H         -0.99733       -0.47671       -0.91192
H         -2.38600        0.91686        6.27788
H          0.01716        3.72462        4.07984
H          0.02469        2.22097        2.16242
H         -5.30501       -6.09276        1.26922
H         -5.58389       -7.07474       -0.94539
H         -1.10335       -7.01956        1.14467
H         -1.39101       -8.01924       -1.05982
H         -3.95553       -4.01300        4.69306
H         -5.70658       -4.35461        6.35040
H         -6.40238       -8.30730        4.80868
H         -4.66334       -7.96458        3.13643
H         -1.31909        4.41112        6.24963
H         -1.91454        3.10285        7.27891
H         -0.17929        3.32885        7.04766
H          3.47620       -0.96482       -2.41726
H          4.04838        0.51378       -1.64189
H          4.44914       -1.05418       -0.94366
H         -7.20392       -7.54333        7.23284
H         -7.29431       -5.80005        7.51287
H         -8.29194       -6.55071        6.26422
H         -4.54726       -7.85886       -3.08277
H         -2.80680       -8.16138       -3.17145
H         -3.87588       -9.35978       -2.44234

  eps=4.88617
  epsinf=4.88617
  RSolv=8.36
 
