%mem=1000MW
%nprocshared=40
#p wB97XD/6-31g** nosymm pop=esp opt td=(nstates=2,root=1) scf=(MaxCycle=20000) iop(3/107=0016000000,3/108=0016000000) SCRF=(PCM,Solvent=Generic,Read)

 Y6 opt-TDdft

0 1
C               0.0000000000      0.0000000000      0.0000000000
C               0.0000000000      0.0000000000      1.3965880000
C               1.2176200000      0.0000000000      2.0797450000
C               2.4455830000     -0.0015380000      1.4390370000
C               2.4357670000     -0.0016710000      0.0570860000
C               1.2254010000     -0.0005890000     -0.6452740000
C              -1.1080430000     -0.0008350000      2.3890340000
C              -0.4930160000      0.0056910000      3.7247450000
C               0.9739550000      0.0012440000      3.5392250000
C              -1.1633740000      0.0205150000      4.9196620000
C              -0.7724430000      0.0304300000      6.2862710000
S               0.8836470000      0.0224040000      6.9155630000
C               0.2881230000      0.0353420000      8.5271910000
C              -1.1029110000      0.0495320000      8.5802650000
C              -1.7245780000      0.0488450000      7.3195190000
S              -1.7478930000      0.0779610000     10.2156980000
C              -0.1208090000      0.0638260000     10.8272030000
C               0.8427080000      0.0501920000      9.8294410000
N               2.1011630000      0.0062700000     10.3906410000
C               1.9328610000      0.0065930000     11.7643520000
C               0.5572260000      0.0134670000     12.0640210000
C               2.8968190000     -0.0140020000     12.8294840000
C               2.4760250000     -0.2574190000     14.1507890000
C               1.0801280000     -0.3408100000     14.4624110000
C               0.1099940000     -0.1427180000     13.4161110000
N               4.2668340000      0.1803330000     12.8146150000
C               4.7117400000      0.0218930000     14.1100250000
C               3.6407760000     -0.2544370000     14.9475850000
C               5.9447960000      0.1053020000     14.7988750000
C               5.7685010000     -0.1276580000     16.1631250000
S               4.0966770000     -0.4414480000     16.6135400000
C               6.9587820000     -0.0820580000     16.9040640000
C               8.0604660000      0.2006940000     16.0788270000
S               7.5875300000      0.3962940000     14.3860880000
N              -1.1424580000     -0.1879710000     13.8358350000
S              -1.0829410000     -0.4611850000     15.4533570000
N               0.5448720000     -0.5294840000     15.6560600000
C               9.3645780000      0.2840020000     16.6319970000
C              10.1292410000      1.2945390000     17.1525230000
C              11.4954650000      1.1635540000     17.6741800000
C              11.9078090000      2.5078420000     18.1596370000
C              10.8623510000      3.4078770000     17.9409680000
C               9.7229810000      2.7069970000     17.3068060000
C              10.9333710000      4.7478550000     18.2841360000
C              12.1061210000      5.1881200000     18.8685750000
C              13.1641940000      4.3011210000     19.0949120000
C              13.0888260000      2.9619510000     18.7500350000
F              14.2708500000      4.7763280000     19.6597430000
F              12.2547420000      6.4600130000     19.2271140000
C              12.2883870000      0.0455900000     17.7202170000
C              13.6158780000      0.0487630000     18.2546890000
N              14.6942360000      0.0196670000     18.6818140000
O               8.6670860000      3.2228930000     16.9884170000
C               7.0257540000     -0.3108660000     18.3865330000
C               5.0522200000      0.8840240000     11.8118720000
C               3.2630440000     -0.4436980000      9.6390020000
C              -3.2187580000      0.0735350000      7.1911450000
O               1.8403200000     -0.0002230000      4.3943660000
C              -2.4387140000     -0.0106640000      2.0592670000
C              -2.9117920000     -0.0174380000      0.7087050000
N              -3.3285430000     -0.0227900000     -0.3740630000
F               3.5717490000     -0.0025270000     -0.6340900000
F               1.2715910000      0.0003970000     -1.9745640000
C              11.8871720000     -1.2408630000     17.2403750000
N              11.5864790000     -2.2953810000     16.8588580000
C              -3.5018470000     -0.0170070000      3.0160870000
N              -4.3844030000     -0.0221380000      3.7699180000
H              13.9457880000      2.3346030000     18.9531140000
H              10.1061860000      5.4243670000     18.1032040000
H               9.8365920000     -0.6905180000     16.6268540000
H               7.6743740000     -1.1554950000     18.6356850000
H               6.0332770000     -0.5231100000     18.7883430000
H               7.4201520000      0.5628160000     18.9131320000
H               5.7036490000      1.6029130000     12.3132160000
H               4.3876670000      1.4415030000     11.1523020000
H               5.6697150000      0.2018360000     11.2225650000
H               2.9321020000     -1.1187600000      8.8470900000
H               3.9290720000     -1.0033260000     10.2953700000
H               3.8059040000      0.3893160000      9.1857900000
H              -3.5899120000     -0.0089480000      6.1701260000
H              -3.6079510000      1.0057400000      7.6135480000
H              -3.6502510000     -0.7506870000      7.7679700000
H              -2.2413330000      0.0287960000      4.8362680000
H               3.3750950000     -0.0035330000      1.9963760000
H              -0.8949390000      0.0022460000     -0.6068100000

  eps=3.36
  epsinf=3.36
  RSolv=7.28

 
