%mem=800MW
%nprocshared=64
#p wB97XD/6-31g** opt td=(nstates=2,root=1) pop=esp scf=(MaxCycle=20000) nosymm iop(3/107=0003000000,3/108=0003000000) SCRF=(PCM,Solvent=Generic,Read)

IT-2F

0  1
C         -5.02810       15.46359       -0.69271
C         -4.77872       14.12038       -0.39626
C         -4.39293       13.76296        0.91232
C         -4.25767       14.70166        1.93157
C         -4.50228       16.04751        1.64451
C         -4.87652       16.39033        0.34327
C         -4.17318       12.29933        0.97139
C         -4.39282       11.77807       -0.41685
C         -4.85466       12.88743       -1.22978
C         -4.08486       10.49716       -0.88279
C         -3.68637        9.28339       -0.27264
S         -3.52228        8.90499        1.45658
C         -3.10625        7.24538        1.09184
C         -3.07870        7.02471       -0.31014
C         -3.40051        8.13940       -1.07111
C         -2.77227        6.09612        1.82882
C         -2.49843        5.01524        0.98778
S         -2.63884        5.36741       -0.71681
C         -2.17283        3.83270        1.74856
C         -2.29172        4.17923        3.12318
C         -2.66798        5.67422        3.30198
C         -1.79374        2.54284        1.33683
C         -1.54600        1.59645        2.31926
C         -1.68408        1.93685        3.69389
C         -2.05126        3.23051        4.10567
C         -1.07844        0.12800        2.14016
C         -1.02616       -0.30999        3.61062
C         -1.38327        0.74557        4.45269
S         -1.40560        0.34130        6.15152
C         -0.92667       -1.30478        5.73915
C         -0.76827       -1.48266        4.34038
S         -0.29029       -3.12217        3.96462
C         -0.32299       -3.56581        5.68562
C         -0.68335       -2.44619        6.49008
C          0.31712        0.16876        1.46273
C          0.43645        0.25166        0.06579
C          1.68451        0.39075       -0.54485
C          2.86588        0.45536        0.21115
C          2.74227        0.37747        1.60674
C          1.49502        0.24072        2.22079
C          4.22566        0.57966       -0.45275
C         -2.11798       -0.76016        1.40694
C         -1.73180       -1.94060        0.75285
C         -2.67916       -2.78788        0.17354
C         -4.05134       -2.49731        0.22886
C         -4.43460       -1.32140        0.89273
C         -3.48982       -0.47096        1.47175
C         -0.07708       -4.82377        6.28954
C          0.27261       -6.09196        5.81801
C          0.59742       -6.44537        4.39889
C          0.98122       -7.87346        4.39075
C          0.88765       -8.38460        5.70118
C          0.43482       -7.29561        6.61552
C          1.19406       -9.73015        5.92967
C          1.58740      -10.49753        4.82905
C          1.68731       -9.99912        3.52812
C          1.37404       -8.65556        3.30793
C         -4.05587        5.87783        3.96612
C         -4.38609        7.08948        4.59578
C         -5.65699        7.29971        5.13267
C         -6.65516        6.31401        5.05871
C         -6.32720        5.11193        4.41498
C         -5.05525        4.89823        3.87557
C         -1.50017        6.36411        4.05553
C         -1.44532        6.35638        5.45910
C         -0.35501        6.89949        6.14150
C          0.72834        7.46996        5.45419
C          0.67646        7.46338        4.05202
C         -0.41214        6.91884        3.36610
O          0.56325       -5.70301        3.42602
C          0.20146       -7.46274        7.99134
C         -0.31658       -6.46265        8.87177
N         -0.74211       -5.71037        9.65808
F          1.88617      -11.79694        5.04247
C         -5.07559       -3.41125       -0.41975
C         -8.02853        6.55009        5.66165
C          1.89310        8.09850        6.19796
C         -5.36280       12.83292       -2.53837
C         -5.63831       11.62620       -3.25429
N         -5.90969       10.68796       -3.89523
O         -3.85741       11.65451        1.96246
H         -4.40675       16.81709        2.39901
C          0.44386       -8.67885        8.70248
N          0.62029       -9.62872        9.35894
C         -5.72633       13.98368       -3.30371
N         -6.03302       14.87552       -3.99282
H         -3.96693       14.39394        2.92804
H         -5.31965       15.82066       -1.66736
H         -4.14179       10.37963       -1.95664
H         -3.44728        8.16348       -2.15025
H         -2.14581        3.47018        5.15503
H         -1.70049        2.30286        0.28735
H         -0.76452       -2.51215        7.56529
H         -0.20067       -4.75258        7.36056
H          1.14409      -10.20513        6.89564
H          1.43586       -8.22825        2.31516
H         -4.85394        3.95518        3.38339
H         -0.35429        6.87805        7.22683
H         -2.25966        5.93357        6.03407
H          1.49497        7.88876        3.48013
H         -0.39847        6.92842        2.28355
H         -7.07029        4.32538        4.33024
H         -5.86933        8.24786        5.61637
H         -3.64751        7.87550        4.68401
H         -0.44549        0.20119       -0.56055
H          1.73358        0.44998       -1.62763
H          1.45232        0.19764        3.30161
H          3.62935        0.42562        2.23044
H         -3.83720        0.41936        1.98086
H         -5.48609       -1.06225        0.96643
H         -2.33752       -3.69052       -0.32286
H         -0.68540       -2.20835        0.68580
H         -8.48201        7.46199        5.26160
H         -8.70781        5.72063        5.45672
H         -7.96361        6.67000        6.74799
H          2.82481        8.00878        5.63453
H          1.71387        9.16614        6.36739
H          2.04301        7.63256        7.17463
H         -4.80044       -4.46274       -0.30600
H         -6.06740       -3.27375        0.01621
H         -5.15616       -3.20830       -1.49351
H          4.14971        1.04689       -1.43703
H          4.91149        1.17678        0.15310
H          4.68358       -0.40632       -0.59025
H          1.99974      -10.65128        2.72323
F         -5.10676       17.69095        0.06392
                                                   
  eps=4.35875                                      
  epsinf=4.35875                                   
  RSolv=8.17                                       
                                                   
                                                   

