%mem=800MW
%nprocshared=64
#p wB97XD/6-31g** opt td=(nstates=2,root=1) pop=esp scf=(MaxCycle=20000) nosymm iop(3/107=0001000000,3/108=0001000000) SCRF=(PCM,Solvent=Generic,Read)

IT-4F

0  1
C          0.29161        0.17253       -0.01812
C          0.22513        0.11569        1.38386
C          1.43174        0.18846        2.09509
C          2.65630        0.29800        1.43145
C          2.72740        0.34776        0.03085
C          1.51692        0.28427       -0.67819
C         -1.14343        0.10327        2.11525
C         -1.03937       -0.31552        3.58814
C         -1.35495        0.77783        4.43514
C         -1.66266        1.93524        3.68934
C         -1.58661        1.58087        2.29235
S         -1.30380        0.38945        6.14653
C         -0.86094       -1.26802        5.72969
C         -0.76575       -1.46719        4.31851
C         -0.59703       -2.39657        6.48117
C         -0.28222       -3.53397        5.67875
S         -0.32049       -3.11938        3.94977
C         -2.00440        3.25484        4.09959
C         -2.26993        4.18573        3.12657
C         -2.21126        3.82670        1.73012
C         -1.86339        2.50885        1.31971
C         -2.62767        5.68647        3.30208
C         -2.76971        6.09437        1.82914
C         -2.53978        4.97858        0.98429
S         -2.72457        5.33079       -0.72559
C         -3.11278        7.00228       -0.31186
C         -3.09092        7.23314        1.09750
S         -3.46955        8.90268        1.46207
C         -3.65222        9.27763       -0.26686
C         -3.42334        8.11783       -1.06525
C         -0.02322       -4.78409        6.28850
C          0.30396       -6.05904        5.82236
C          0.58826       -6.43231        4.40996
C          0.99499       -7.86051        4.41878
C          0.94509       -8.34950        5.73620
C          0.49049       -7.25206        6.64187
C          1.37374       -8.64373        3.33317
C          1.71552       -9.96781        3.58632
C          1.66985      -10.47471        4.89421
C          1.28770       -9.68591        5.97809
O          0.51859       -5.72005        3.41607
C          0.26883       -7.40688        8.01212
C          0.52099       -8.61725        8.73383
N          0.70506       -9.56087        9.39595
C         -2.22281       -0.78403        1.44056
C         -1.87708       -1.97673        0.78556
C         -2.85727       -2.82240        0.26163
C         -4.22320       -2.51834        0.37647
C         -4.56564       -1.33094        1.04250
C         -3.58779       -0.48195        1.56650
C         -4.00188        5.90567        3.99161
C         -4.31436        7.12362        4.61411
C         -5.57817        7.34774        5.16776
C         -6.58294        6.37042        5.11606
C         -6.27192        5.15829        4.47730
C         -5.01102        4.93114        3.92341
C         -1.43806        6.37668        4.01892
C         -1.35696        6.40323        5.42107
C         -0.24613        6.94697        6.06903
C          0.83303        7.48306        5.34752
C          0.75553        7.44035        3.94716
C         -0.35380        6.89503        3.29549
C         -3.95715       10.51511       -0.88117
C         -4.23526       11.80269       -0.41945
C         -4.50837       12.96945       -1.25261
C         -4.94206       14.07374       -0.34618
C         -4.84953       13.63045        0.98514
C         -4.38985       12.21787        1.00161
C         -5.16347       14.43612        2.07495
C         -5.59364       15.73226        1.81174
C         -5.70048       16.18956        0.48917
C         -5.37824       15.38025       -0.59912
C         -7.94782        6.59844        5.74122
C          2.01984        8.11257        6.05509
C         -4.35276       13.10058       -2.63392
C         -4.68363       14.28316       -3.36971
N         -4.93457       15.20445       -4.04116
O         -4.19379       11.54595        2.00651
C         -5.28282       -3.43131       -0.21453
C          4.06199        0.44135       -0.68737
C         -3.80981       12.09858       -3.50113
N         -3.36546       11.34492       -4.27430
C         -0.25455       -6.40001        8.88542
N         -0.68434       -5.64410        9.66471
F         -5.91494       16.56063        2.82011
F         -6.12671       17.44571        0.27073
H         -5.08011       14.07869        3.09253
H         -5.48775       15.79999       -1.58595
H         -3.98639       10.40122       -1.95582
H         -3.48707        8.14061       -2.14348
H         -2.05171        3.50473        5.14968
H         -1.81874        2.25870        0.26956
H         -0.62965       -2.44582        7.55992
H         -0.10396       -4.69796        7.36272
H          1.27634      -10.14563        6.95287
F          2.00499      -11.75984        5.10243
F          2.09330      -10.77738        2.58217
H          1.40600       -8.24817        2.32687
H         -4.82380        3.98299        3.43568
H         -0.22557        6.95362        7.15435
H         -2.16549        6.00696        6.02237
H          1.56965        7.83694        3.34894
H         -0.35846        6.87588        2.21292
H         -7.02285        4.37751        4.40871
H         -5.77586        8.30241        5.64436
H         -3.57112        7.90699        4.68305
H         -0.61444        0.12314       -0.60908
H          1.52435        0.32282       -1.76298
H          1.43194        0.16685        3.17752
H          3.56718        0.34754        2.01962
H         -3.90361        0.41718        2.08064
H         -5.61039       -1.06168        1.16142
H         -2.54712       -3.73417       -0.23866
H         -0.83717       -2.25456        0.67429
H         -8.13641        7.65935        5.91714
H         -8.74703        6.21468        5.10161
H         -8.02572        6.08383        6.70534
H          2.93369        8.02509        5.46302
H          1.84371        9.17968        6.23121
H          2.20021        7.64606        7.02639
H         -5.01711       -4.48396       -0.08918
H         -6.25638       -3.27180        0.25377
H         -5.39961       -3.24908       -1.28868
H          3.95593        0.90214       -1.67196
H          4.78236        1.03006       -0.11430
H          4.49579       -0.55419       -0.83416
                                                  
  eps=4.73931                                      
  epsinf=4.73931                                   
  RSolv=8.25                                       
   
