%mem=1000MW
%nprocshared=40
#p wB97XD/6-31g** nosymm pop=esp opt td=(triplet,nstates=2,root=1) scf=(MaxCycle=20000) iop(3/107=0001100000,3/108=0001100000) SCRF=(PCM,Solvent=Generic,Read)

 IT-4Cl opt-TDdft

0 1
C         -0.10648       -0.27974       -0.21226
C         -0.07698       -0.14118        1.18304
C          1.18070       -0.07578        1.80531
C          2.35810       -0.12599        1.05640
C          2.33179       -0.25004       -0.34277
C          1.07392       -0.32930       -0.95876
C         -1.38299       -0.19093        2.01864
C         -2.63286        0.18607        1.21058
C         -3.49926       -0.93249        1.09113
C         -2.95830       -2.07146        1.72385
C         -1.69744       -1.68291        2.30764
S         -4.97808       -0.59671        0.20785
C         -4.44005        1.06969       -0.01301
C         -3.16833        1.31146        0.59863
C         -5.00665        2.15857       -0.64995
C         -4.18977        3.31651       -0.55810
S         -2.69593        2.97495        0.36057
C         -0.92839       -2.59679        2.98447
C         -1.41668       -3.92805        3.09587
C         -2.68309       -4.31422        2.52486
C         -3.44875       -3.40272        1.84066
C         -0.86113       -5.07575        3.70406
C         -1.69694       -6.20634        3.53659
C         -2.97496       -5.81758        2.77889
S          0.61187       -5.40132        4.59876
C          0.11257       -7.08621        4.75232
C         -1.14844       -7.33925        4.13377
S         -1.60037       -9.02046        4.30423
C         -0.10724       -9.36864        5.20539
C          0.68914       -8.19542        5.34211
C         -4.39347        4.64490       -0.98762
C         -5.30811        5.19691       -1.89555
C         -6.02745        4.48067       -2.99363
C         -6.52769        5.54289       -3.91523
C         -6.21093        6.80839       -3.39269
C         -5.51694        6.62214       -2.08681
C         -7.19437        5.38114       -5.11999
C         -7.55521        6.52626       -5.84338
C         -7.24134        7.80246       -5.33483
C         -6.57360        7.95012       -4.10813
Cl        -8.38513        6.32320       -7.36999
Cl        -7.66703        9.25699       -6.20995
O         -6.16202        3.27712       -3.16734
C         -5.22162        7.64026       -1.17802
C         -5.39391        9.03378       -1.45257
N         -5.49858       10.18538       -1.61249
C         -1.36061        0.68684        3.29874
C         -0.71680        1.93551        3.30700
C         -0.76541        2.76456        4.42905
C         -1.46449        2.38756        5.58785
C         -2.11791        1.14622        5.57092
C         -2.07138        0.31363        4.44908
C         -3.11630       -6.51777        1.40335
C         -4.35751       -6.58460        0.75011
C         -4.47107       -7.13731       -0.52736
C         -3.35151       -7.64242       -1.20821
C         -2.11046       -7.56013       -0.55817
C         -1.99297       -7.00580        0.71907
C         -4.17672       -6.04364        3.73805
C         -4.83339       -7.28468        3.79485
C         -5.85378       -7.51907        4.71804
C         -6.26024       -6.52938        5.62840
C         -5.59622       -5.29499        5.57528
C         -4.57316       -5.05723        4.65293
C          0.32309      -10.59046        5.77446
C         -0.18012      -11.89134        5.81227
C         -1.37231      -12.40098        5.08299
C         -1.37070      -13.87953        5.25227
C         -0.28459      -14.25394        6.06121
C          0.43779      -13.02225        6.49746
C         -0.06803      -15.60950        6.31690
C         -0.94673      -16.55701        5.76803
C         -2.04131      -16.16147        4.97295
C         -2.25374      -14.80183        4.71159
C         -3.48393       -8.27821       -2.58099
C         -7.38330       -6.78935        6.61686
O         -2.19810      -11.75832        4.44746
C          1.45751      -13.00049        7.44918
C          2.01488      -14.17200        8.05452
N          2.52343      -15.07719        8.58770
Cl        -0.63467      -18.24594        6.10362
Cl        -3.15205      -17.32759        4.29065
C         -1.48899        3.28407        6.81313
C          3.61508       -0.26941       -1.15431
C          2.04682      -11.81256        7.99050
N          2.56542      -10.89565        8.49349
C         -4.77790        7.41607        0.16562
N         -4.44304        7.31778        1.27955
H         -7.42746        4.39505       -5.49775
H         -6.35257        8.94694       -3.76281
H         -3.69520        5.35413       -0.55998
H         -5.95664        2.16213       -1.15572
H          0.02061       -2.32330        3.42275
H         -4.39612       -3.67686        1.39918
H          1.63641       -8.19875        5.86176
H          1.27335      -10.45654        6.27269
H          0.75547      -15.96456        6.91424
H         -3.08505      -14.48072        4.09899
H         -2.59930       -0.63068        4.48401
H          3.31015       -0.06539        1.57421
H          1.25368        0.02276        2.88114
H          1.00508       -0.43362       -2.03681
H         -1.05209       -0.35765       -0.73380
H         -2.67458        0.81725        6.44263
H         -0.25150        3.71985        4.39587
H         -0.16092        2.26751        2.43979
H         -5.25043       -6.21155        1.23572
H         -5.44940       -7.17576       -0.99572
H         -1.01162       -6.95356        1.17370
H         -1.21762       -7.93288       -1.04999
H         -4.08615       -4.09080        4.66172
H         -5.87416       -4.50297        6.26329
H         -6.33684       -8.49091        4.72674
H         -4.56084       -8.07766        3.11090
H         -1.68060        4.32539        6.54056
H         -2.25803        2.97429        7.52325
H         -0.52569        3.25602        7.33406
H          3.46684       -0.73828       -2.12932
H          3.97885        0.74924       -1.32954
H          4.40835       -0.81287       -0.63466
H         -7.25670       -7.75503        7.11406
H         -7.42881       -6.01678        7.38667
H         -8.35350       -6.81037        6.10876
H         -4.31287       -7.84467       -3.14505
H         -2.57153       -8.15382       -3.16861
H         -3.67315       -9.35383       -2.49174

  eps=4.88617
  epsinf=4.88617
  RSolv=8.36
 
