%mem=800MW
%nprocshared=64
#p wB97XD/6-31g** opt td=(nstates=2,root=1) pop=esp scf=(MaxCycle=20000) nosymm iop(3/107=0000600000,3/108=0000600000) SCRF=(PCM,Solvent=Generic,Read)

IEICO

0  1
C         12.33365       -0.79650        9.83758
C         12.69892        0.08601        8.81322
C         14.00535        0.01505        8.29021
C         14.94559       -0.90419        8.74395
C         14.57052       -1.78578        9.76566
C         13.27854       -1.72329       10.30268
C         14.16365        1.05147        7.23891
C         12.86435        1.77511        7.14437
C         11.94824        1.16031        8.09603
C         12.58470        2.86526        6.31792
C         13.30706        3.59648        5.34303
C         12.70142        4.68035        4.66270
C         13.52446        5.30009        3.72574
C         14.82717        4.72265        3.64288
S         14.96199        3.37254        4.77500
C         15.92304        5.10139        2.82392
C         17.20447        4.50910        2.80008
C         18.07075        5.12395        1.89114
C         17.48375        6.18011        1.20145
S         15.83558        6.44937        1.65921
C         18.41681        6.78407        0.27880
C         19.63357        6.05229        0.38353
C         19.51423        4.90026        1.41616
C         20.74307        6.42893       -0.35926
C         20.61627        7.53268       -1.22182
C         19.39222        8.24990       -1.34395
C         18.28864        7.88520       -0.58691
C         19.52345        9.43018       -2.34171
C         21.00445        9.28479       -2.72261
C         21.57057        8.18239       -2.09088
S         23.22791        7.93455       -2.52932
C         23.17459        9.36153       -3.59815
C         21.89342        9.95301       -3.56958
C         18.69059        9.24387       -3.63918
C         18.55670       10.31156       -4.54546
C         17.89544       10.14874       -5.76231
C         17.33730        8.91188       -6.13213
C         17.47425        7.84979       -5.22836
C         18.14032        8.00941       -4.00739
C         16.60416        8.74843       -7.45212
C         19.19924       10.74708       -1.59051
C         17.89141       11.25476       -1.55310
C         17.58279       12.40221       -0.81706
C         18.56472       13.08707       -0.08465
C         19.87026       12.57020       -0.11597
C         20.18154       11.42315       -0.84963
C         24.29513        9.80284       -4.34978
S         24.18286       11.22078       -5.39733
C         25.87166       11.07799       -5.88421
C         26.46505        9.95371       -5.26154
C         25.60872        9.24861       -4.41889
C         19.57891        3.48657        0.77648
C         19.37742        3.27908       -0.59464
C         19.34217        1.98830       -1.13381
C         19.50097        0.85356       -0.32597
C         19.69634        1.06435        1.05010
C         19.73258        2.34999        1.59045
C         20.57675        5.12125        2.52298
C         20.31603        5.94351        3.63019
C         21.29923        6.19389        4.59054
C         22.58562        5.64150        4.48234
C         22.84752        4.83110        3.36667
C         21.86563        4.57739        2.40520
C         26.63073       11.92906       -6.72358
C         26.35033       13.07265       -7.47478
C         25.00103       13.63942       -7.75869
C         25.18953       14.70003       -8.78295
C         26.56299       14.81904       -9.07602
C         27.32111       13.85700       -8.22312
C         26.97297       15.75704      -10.03129
C         26.00134       16.54828      -10.66212
C         24.64075       16.42242      -10.35481
C         24.22231       15.48648       -9.40012
O         25.88661        8.15161       -3.69308
C         27.21098        7.58930       -3.75207
O         23.93050       13.29788       -7.26849
C         28.71762       13.80365       -8.12985
C         29.44478       13.02356       -7.17531
N         30.11173       12.43475       -6.41812
C         18.22602       14.32327        0.73052
C         19.48082       -0.54914       -0.90794
C         23.65665        5.93154        5.51984
O         13.22530        6.34046        2.92851
C         11.91231        6.92717        3.00284
C         10.59784        1.46046        8.31942
C          9.77922        0.81391        9.29886
N          9.03900        0.34612       10.07187
O         15.18129        1.26197        6.58786
C         29.60842       14.56959       -8.94601
N         30.40366       15.14871       -9.57566
C          9.83371        2.43180        7.59818
N          9.13333        3.19576        7.05862
H         15.27886       -2.51488       10.14193
H         15.93867       -0.93214        8.31260
H         12.99464       -2.40659       11.09508
H         11.35250       -0.78817       10.28514
H         11.68427        4.97617        4.86894
H         11.90892        7.72237        2.26209
H         11.73314        7.34641        3.99483
H         11.14573        6.19057        2.75493
H         17.47134        3.67554        3.43131
H         19.23859        4.12049       -1.26101
H         19.18452        1.87223       -2.20150
H         19.81906        0.21429        1.71415
H         19.88561        2.46308        2.65662
H         19.34010        6.39566        3.75586
H         21.05353        6.82769        5.43699
H         22.11178        3.93662        1.56743
H         23.82836        4.38261        3.24284
H         21.20207       11.06078       -0.83982
H         20.66131       13.06871        0.43569
H         17.10116       10.76476       -2.10839
H         16.56042       12.76748       -0.82164
H         18.96856       11.28370       -4.30368
H         17.81618       10.99803       -6.43388
H         18.22668        7.15410       -3.35012
H         17.05873        6.87686       -5.47155
H         17.35700        8.42926       -0.65462
H         21.68128        5.89833       -0.27678
H         21.64676       10.83334       -4.14262
H         18.05830       14.06353        1.78188
H         17.31937       14.80906        0.36348
H         19.03636       15.05602        0.70183
H         15.63468        9.25791       -7.42653
H         16.41971        7.69708       -7.68149
H         17.17507        9.17932       -8.27948
H         27.49944        9.69711       -5.43219
H         26.31753       17.27244      -11.40434
H         28.00865       15.88908      -10.30231
H         23.17555       15.37096       -9.14719
H         23.91330       17.04933      -10.85753
H         27.19152        6.73160       -3.08482
H         27.95257        8.31048       -3.40300
H         27.44491        7.26215       -4.76713
H         19.03159       -0.56475       -1.90303
H         18.91333       -1.23387       -0.27197
H         20.49590       -0.95220       -0.99639
H         23.22747        6.02642        6.52032
H         24.17077        6.87296        5.29510
H         24.41221        5.14353        5.54873
H         11.59162        3.27671        6.42612
H         27.65399       11.58422       -6.78392
                                                   
  eps=4.9548                                       
  epsinf=4.9548                                    
  RSolv=8.20                                       
                                                   
                                                   
