%mem=800MW
%nprocshared=32
%chk=Y6-HSO-scan-100-S1fromT2.chk
%rwf=Y6-HSO-scan-100-S1fromT2.rwf
#p wB97XD/6-31g** td(50-50,nstates=5) 6D 10F nosymm GFInput scf=(MaxCycle=20000) iop(3/107=0016000000,3/108=0016000000) SCRF=(PCM,Solvent=Generic,Read)

 HSO

0 1
C               0.3074700000      0.8640700000      0.1725300000
C               0.3216300000      0.6698100000      1.5580900000
C               1.3324300000      1.2764000000      2.3267400000
C               2.3342900000      2.0630100000      1.7692800000
C               2.3075700000      2.2546300000      0.3919300000
C               1.3039600000      1.6612600000     -0.3878900000
C              -0.5566600000     -0.1190000000      2.4612000000
C              -0.1334700000      0.1355500000      3.8238600000
C               1.1290100000      0.9348000000      3.7571900000
C              -0.8790600000     -0.1502700000      4.9732000000
C              -0.6165900000     -0.0761800000      6.3600600000
S               0.9731100000      0.1793400000      7.1151400000
C               0.2972500000     -0.1033100000      8.6940400000
C              -1.0972300000     -0.3204000000      8.6309900000
C              -1.6366900000     -0.3075700000      7.3427200000
S              -1.8386100000     -0.5450800000     10.2275600000
C              -0.2648700000     -0.3460300000     10.9592200000
C               0.7606000000     -0.1113000000     10.0234600000
N               1.9742400000     -0.0010200000     10.6822400000
C               1.7159200000     -0.1395000000     12.0430700000
C               0.3254900000     -0.3965200000     12.2356400000
C               2.5871800000     -0.0584700000     13.1765100000
C               2.1317500000     -0.5072800000     14.4518800000
C               0.7537000000     -0.8657900000     14.6442900000
C              -0.1739700000     -0.7413200000     13.5382900000
N               3.9027700000      0.3842300000     13.2864500000
C               4.2996900000      0.1607600000     14.5953900000
C               3.2288600000     -0.3901100000     15.3253700000
C               5.4560500000      0.3461800000     15.3769100000
C               5.2500900000     -0.0679500000     16.7116800000
S               3.6163600000     -0.6969000000     17.0006400000
C               6.3601400000      0.0693400000     17.5481100000
C               7.4833000000      0.6020500000     16.8302000000
S               7.0690700000      0.9560600000     15.1370200000
N              -1.4300300000     -1.0358400000     13.8565000000
S              -1.4277200000     -1.4497500000     15.4587300000
N               0.1850900000     -1.2576900000     15.7795900000
C               8.7624600000      0.7172400000     17.4205500000
C               9.9795800000      1.2761600000     17.0150700000
C              11.2264400000      1.2003100000     17.7509400000
C              12.1485900000      2.2219800000     17.1891100000
C              11.5418900000      2.8083000000     16.0628100000
C              10.1935600000      2.2168700000     15.8721100000
C              12.1656200000      3.7838000000     15.2927500000
C              13.4378700000      4.1909000000     15.6803000000
C              14.0527300000      3.6230900000     16.8061300000
C              13.4297800000      2.6368900000     17.5687300000
F              15.2774600000      4.0473400000     17.1540800000
F              14.0922700000      5.1345500000     14.9834600000
C              11.5640700000      0.2755500000     18.7499800000
C              12.7795900000      0.3196800000     19.4976100000
N              13.7470300000      0.3082600000     20.1514600000
O               9.4197300000      2.4767800000     14.9613600000
C               6.3791500000     -0.2966600000     19.0106400000
C               4.5708300000      1.3738100000     12.4268800000
C               3.2556700000     -0.2382900000     10.0008300000
C              -3.0952000000     -0.5165300000      7.0229800000
O               1.8530400000      1.2701600000      4.6840300000
C              -1.5461000000     -1.0183500000      2.0382800000
C              -1.9742200000     -1.1475900000      0.6825200000
N              -2.3765900000     -1.2900600000     -0.4043800000
F               3.2397500000      3.0129300000     -0.2081300000
F               1.3089000000      1.8717800000     -1.7133400000
C              10.7766000000     -0.8683000000     19.0855200000
N              10.2061300000     -1.8401400000     19.3912900000
C              -2.1833600000     -1.9688200000      2.8936000000
N              -2.7215100000     -2.7925600000      3.5222700000
H              13.9596800000      2.2461400000     18.4230400000
H              11.6890400000      4.2185600000     14.4244100000
H               8.7802700000      0.2828800000     18.4113700000
H               6.8110100000      0.5025700000     19.6166800000
H               6.9600900000     -1.2056100000     19.1832400000
H               5.3695700000     -0.4750900000     19.3800800000
H               4.8974400000      2.2133300000     13.0393200000
H               3.8622000000      1.7567500000     11.6995100000
H               5.4309800000      0.9406200000     11.9182200000
H               3.1160600000     -1.0064500000      9.2413100000
H               3.9810300000     -0.6135900000     10.7157200000
H               3.6302300000      0.6703000000      9.5313200000
H              -3.4690200000      0.2528400000      6.3439800000
H              -3.7013600000     -0.4777300000      7.9276500000
H              -3.2610700000     -1.4900800000      6.5557400000
H              -1.8884600000     -0.4881400000      4.7776400000
H               3.1085800000      2.5163400000      2.3735800000
H              -0.4350400000      0.4413200000     -0.4860200000

  eps=3.36
  epsinf=3.36
  RSolv=7.28
 
