%mem=1000MW
%nprocshared=40
#p wB97XD/6-31g** opt td=(triplet,nstates=3,root=2) scf=(MaxCycle=20000) iop(3/107=0016000000,3/108=0016000000) nosymm pop=esp SCRF=(PCM,Solvent=Generic,Read)

 Y6

0 1
C        -10.82606       -8.41306        0.64549
C        -10.95698       -7.16568        0.03888
C         -9.82994       -6.33688       -0.01144
C         -8.61760       -6.78913        0.54316
C         -8.48119       -8.03749        1.13935
C         -9.60869       -8.85154        1.18746
C         -9.61427       -4.98809       -0.59457
C         -7.58009       -5.73748        0.37854
C         -8.26093       -4.57076       -0.24760
F        -11.89273       -9.22489        0.71718
F         -9.54701      -10.06632        1.75693
O         -6.40877       -5.83293        0.72332
C        -10.52609       -4.31292       -1.40849
C        -10.21024       -3.14700       -2.17326
C        -11.86657       -4.75149       -1.63815
N        -12.97470       -5.04802       -1.85561
N        -10.01876       -2.21570       -2.85092
H        -11.92214       -6.89159       -0.35706
H         -7.54095       -8.37399        1.55517
C         -7.77967       -3.26635       -0.32154
C         -6.51420       -2.66225       -0.10498
H         -8.52611       -2.52827       -0.58575
S         -4.96590       -3.51609        0.08102
C         -4.10559       -2.00500        0.09088
C         -6.33991       -1.24368       -0.11601
C         -4.98971       -0.90494       -0.00489
C         -7.46474       -0.24466       -0.23275
H         -7.93621       -0.29263       -1.21630
H         -7.09942        0.77213       -0.09260
H         -8.23400       -0.42297        0.52199
S         -4.15835        0.66526        0.01114
C         -2.63212       -0.17381        0.14982
C         -2.77040       -1.58655        0.17565
C         -1.27791        0.12431        0.26758
C         -0.58131       -1.14093        0.30991
N         -1.52545       -2.17287        0.29666
C         -0.54779        1.35708        0.40563
C          0.88411        1.31461        0.60479
C          1.56958        0.05092        0.53210
C          0.82577       -1.16632        0.29967
C         -1.35208       -3.52398        0.85383
H         -2.12411       -3.70097        1.60144
H         -0.39125       -3.58777        1.35485
H         -1.41925       -4.28524        0.07814
N         -1.05738        2.58227        0.42692
N          1.43732        2.50808        0.78043
S          0.20956        3.61758        0.69089
C          2.91433       -0.30594        0.55844
C          2.99963       -1.69835        0.29434
N          1.73144       -2.21635        0.12034
C          1.49034       -3.46644       -0.61615
H          2.25176       -3.57443       -1.38720
H          0.52698       -3.41123       -1.11368
H          1.52242       -4.33018        0.04641
C          4.32203       -2.16045        0.23091
C          5.24822       -1.11887        0.46894
S          4.47459        0.45419        0.75980
S          5.12456       -3.68594       -0.00068
C          6.71349       -2.90210        0.15698
C          6.58981       -1.50606        0.43833
C          7.74984       -0.56732        0.66248
H          8.27617       -0.36195       -0.27213
H          8.46773       -0.97902        1.37461
H          7.40555        0.38559        1.06380
C          7.97444       -3.51838       -0.05252
C          8.39785       -4.83155       -0.24100
H          8.77225       -2.78691       -0.04835
C          7.60013       -6.06765       -0.01480
C          9.77039       -5.24157       -0.51621
C          8.56618       -7.19661       -0.00821
C          9.85769       -6.70480       -0.27577
C          8.30425       -8.54252        0.21956
C          9.38329       -9.42024        0.18867
C         10.67880       -8.94501       -0.06502
C         10.93620       -7.59692       -0.30483
C         10.80825       -4.45119       -1.01426
C         10.64137       -3.11702       -1.49976
C         12.15244       -4.90935       -1.17421
H          7.30403       -8.90614        0.41322
H         11.95619       -7.30118       -0.49325
O          6.39168       -6.16536        0.16022
F          9.19866      -10.73297        0.40374
F         11.69572       -9.82135       -0.07697
N         10.57768       -2.03977       -1.94546
N         13.26985       -5.21665       -1.31616
                                                   
  eps=3.36                                       
  epsinf=3.36                                    
  RSolv=7.28
 
