%mem=800MW
%nprocshared=32
%chk=IT-4Cl-HSO-scan-160-T1fromS1.chk
%rwf=IT-4Cl-HSO-scan-160-T1fromS1.rwf
#p wB97XD/6-31g** td(50-50,nstates=5) 6D 10F nosymm GFInput scf=(MaxCycle=20000) iop(3/107=0001100000,3/108=0001100000) SCRF=(PCM,Solvent=Generic,Read)

 HSO

0 1
C              -0.1278600000     -0.2884200000     -0.2174800000
C              -0.0926300000     -0.1476400000      1.1775700000
C               1.1672100000     -0.0799200000      1.7952800000
C               2.3415700000     -0.1295800000      1.0417900000
C               2.3098000000     -0.2553600000     -0.3572400000
C               1.0496700000     -0.3371100000     -0.9684000000
C              -1.3958000000     -0.1964200000      2.0177600000
C              -2.6485600000      0.1782800000      1.2158900000
C              -3.5102100000     -0.9307500000      1.0958500000
C              -2.9644800000     -2.0780000000      1.7267300000
C              -1.7062800000     -1.6877600000      2.3061500000
S              -4.9891100000     -0.5983000000      0.2224200000
C              -4.4580600000      1.0680900000      0.0041700000
C              -3.1914400000      1.3130200000      0.6064000000
C              -5.0341500000      2.1644100000     -0.6304400000
C              -4.2237900000      3.3141100000     -0.5380800000
S              -2.7253900000      2.9739100000      0.3732300000
C              -0.9334900000     -2.6029400000      2.9816100000
C              -1.4213000000     -3.9298400000      3.0911500000
C              -2.6850500000     -4.3176200000      2.5230200000
C              -3.4539700000     -3.4042700000      1.8399400000
C              -0.8641800000     -5.0818600000      3.7020200000
C              -1.6968800000     -6.2064300000      3.5332900000
C              -2.9741500000     -5.8200900000      2.7758600000
S               0.6052000000     -5.4035500000      4.5956900000
C               0.1086900000     -7.0873900000      4.7502400000
C              -1.1466100000     -7.3441100000      4.1335000000
S              -1.5954900000     -9.0233500000      4.3045600000
C              -0.1025300000     -9.3674700000      5.2072100000
C               0.6891600000     -8.1995200000      5.3446000000
C              -4.4314900000      4.6536900000     -0.9603100000
C              -5.3267200000      5.2082600000     -1.8753000000
C              -6.0550800000      4.4930300000     -2.9678900000
C              -6.5230800000      5.5532100000     -3.9075200000
C              -6.1873200000      6.8195900000     -3.3950300000
C              -5.5118100000      6.6386200000     -2.0830900000
C              -7.1819000000      5.3896400000     -5.1159000000
C              -7.5150400000      6.5328900000     -5.8565500000
C              -7.1832200000      7.8089400000     -5.3589300000
C              -6.5245600000      7.9595500000     -4.1278800000
Cl             -8.3334400000      6.3268000000     -7.3890700000
Cl             -7.5765000000      9.2606300000     -6.2544200000
O              -6.2203000000      3.2904400000     -3.1241100000
C              -5.2082400000      7.6620800000     -1.1809000000
C              -5.3480900000      9.0548300000     -1.4732500000
N              -5.4269400000     10.2068200000     -1.6483200000
C              -1.3712900000      0.6803900000      3.2983000000
C              -0.7236500000      1.9270300000      3.3075500000
C              -0.7706600000      2.7551100000      4.4302800000
C              -1.4716400000      2.3792100000      5.5884200000
C              -2.1292600000      1.1400000000      5.5701000000
C              -2.0849500000      0.3085400000      4.4475800000
C              -3.1136700000     -6.5166300000      1.3983400000
C              -4.3549000000     -6.5861800000      0.7453400000
C              -4.4663100000     -7.1362800000     -0.5333000000
C              -3.3447500000     -7.6356000000     -1.2153900000
C              -2.1038200000     -7.5501900000     -0.5654200000
C              -1.9881700000     -6.9982900000      0.7129300000
C              -4.1740200000     -6.0483300000      3.7366600000
C              -4.8356800000     -7.2869800000      3.7866600000
C              -5.8548700000     -7.5225900000      4.7107000000
C              -6.2549100000     -6.5369000000      5.6284400000
C              -5.5850700000     -5.3052600000      5.5824900000
C              -4.5627800000     -5.0663100000      4.6599200000
C               0.3299300000    -10.5940100000      5.7803200000
C              -0.1702000000    -11.8918500000      5.8185300000
C              -1.3645200000    -12.4014700000      5.0914000000
C              -1.3635300000    -13.8790300000      5.2619000000
C              -0.2755000000    -14.2524200000      6.0713100000
C               0.4492700000    -13.0250000000      6.5033600000
C              -0.0623800000    -15.6090900000      6.3298300000
C              -0.9435000000    -16.5557900000      5.7834800000
C              -2.0379700000    -16.1608900000      4.9880100000
C              -2.2483700000    -14.8006600000      4.7242800000
C              -3.4751900000     -8.2687600000     -2.5894200000
C              -7.3766800000     -6.7986200000      6.6176300000
O              -2.1907300000    -11.7580000000      4.4567300000
C               1.4770700000    -13.0021300000      7.4499900000
C               2.0384800000    -14.1722200000      8.0519700000
N               2.5507500000    -15.0779300000      8.5819900000
Cl             -0.6345000000    -18.2448400000      6.1229400000
Cl             -3.1511300000    -17.3265300000      4.3083700000
C              -1.4943900000      3.2750400000      6.8140500000
C               3.5899000000     -0.2736200000     -1.1735800000
C               2.0695900000    -11.8146300000      7.9856700000
N               2.5919700000    -10.8956500000      8.4824900000
C              -4.7886200000      7.4440200000      0.1704900000
N              -4.4701300000      7.3477800000      1.2899900000
H              -7.4310600000      4.4035400000     -5.4833300000
H              -6.2898300000      8.9563300000     -3.7915600000
H              -3.7455600000      5.3606000000     -0.5095000000
H              -5.9875200000      2.1661000000     -1.1299900000
H               0.0158300000     -2.3288100000      3.4183500000
H              -4.4016600000     -3.6789900000      1.3998900000
H               1.6358000000     -8.1988200000      5.8653300000
H               1.2784000000    -10.4563600000      6.2810100000
H               0.7603800000    -15.9643900000      6.9280600000
H              -3.0800800000    -14.4793300000      4.1122800000
H              -2.6173000000     -0.6334000000      4.4811200000
H               3.2955500000     -0.0669000000      1.5556900000
H               1.2442300000      0.0205900000      2.8706300000
H               0.9768400000     -0.4426500000     -2.0460000000
H              -1.0754400000     -0.3685400000     -0.7351300000
H              -2.6878700000      0.8123100000      6.4409800000
H              -0.2541600000      3.7089900000      4.3981900000
H              -0.1670300000      2.2584800000      2.4406900000
H              -5.2492000000     -6.2178800000      1.2319900000
H              -5.4444700000     -7.1775400000     -1.0016600000
H              -1.0068800000     -6.9432900000      1.1673900000
H              -1.2097400000     -7.9184700000     -1.0582100000
H              -4.0704200000     -4.1026200000      4.6757300000
H              -5.8575400000     -4.5168000000      6.2766400000
H              -6.3421600000     -8.4922700000      4.7142600000
H              -4.5679700000     -8.0769100000      3.0974500000
H              -1.6857400000      4.3165100000      6.5420100000
H              -2.2626700000      2.9652800000      7.5249300000
H              -0.5303800000      3.2462500000      7.3335800000
H               3.4388100000     -0.7437100000     -2.1475100000
H               3.9509000000      0.7455900000     -1.3511600000
H               4.3861200000     -0.8148900000     -0.6562100000
H              -7.2482400000     -7.7644000000      7.1141700000
H              -7.4227200000     -6.0264500000      7.3877200000
H              -8.3470500000     -6.8209800000      6.1099900000
H              -4.3033000000     -7.8341600000     -3.1538300000
H              -2.5618700000     -8.1436400000     -3.1753600000
H              -3.6647800000     -9.3444300000     -2.5019400000

  eps=4.88617
  epsinf=4.88617
  RSolv=8.36
 
