%mem=800MW
%nprocshared=32
%chk=Y6-HSO-scan-110-S1fromT2.chk
%rwf=Y6-HSO-scan-110-S1fromT2.rwf
#p wB97XD/6-31g** td(50-50,nstates=5) 6D 10F nosymm GFInput scf=(MaxCycle=20000) iop(3/107=0016000000,3/108=0016000000) SCRF=(PCM,Solvent=Generic,Read)

 HSO

0 1
C               0.3920200000      1.0057400000      0.2299900000
C               0.3869800000      0.7789200000      1.6108200000
C               1.3817800000      1.3747200000      2.4079000000
C               2.3859800000      2.1811900000      1.8843000000
C               2.3789300000      2.4041100000      0.5116300000
C               1.3909300000      1.8228400000     -0.2967600000
C              -0.4980800000     -0.0371200000      2.4833600000
C              -0.0937100000      0.1857100000      3.8578000000
C               1.1615900000      0.9984900000      3.8264600000
C              -0.8468700000     -0.1403500000      4.9916400000
C              -0.5988600000     -0.0958000000      6.3828300000
S               0.9798200000      0.1675400000      7.1582700000
C               0.2942200000     -0.1579600000      8.7242800000
C              -1.0958700000     -0.3956400000      8.6440300000
C              -1.6238400000     -0.3648100000      7.3510900000
S              -1.8474400000     -0.6614000000     10.2297900000
C              -0.2835600000     -0.4504600000     10.9795800000
C               0.7458800000     -0.1827000000     10.0572800000
N               1.9520000000     -0.0636300000     10.7281700000
C               1.6842200000     -0.2291500000     12.0841800000
C               0.2967000000     -0.5124200000     12.2603600000
C               2.5445600000     -0.1507600000     13.2258700000
C               2.0862400000     -0.6256100000     14.4907200000
C               0.7129600000     -1.0106100000     14.6654900000
C              -0.2074900000     -0.8857700000     13.5533600000
N               3.8515000000      0.3122500000     13.3532700000
C               4.2412800000      0.0765400000     14.6620700000
C               3.1740400000     -0.5024800000     15.3751800000
C               5.3885100000      0.2692000000     15.4551500000
C               5.1793400000     -0.1677300000     16.7820600000
S               3.5536500000     -0.8269800000     17.0489800000
C               6.2810400000     -0.0251500000     17.6286700000
C               7.4007200000      0.5356500000     16.9269500000
S               6.9929900000      0.9079700000     15.2361100000
N              -1.4609300000     -1.2062700000     13.8564800000
S              -1.4649400000     -1.6436600000     15.4523900000
N               0.1416000000     -1.4290000000     15.7899300000
C               8.6739000000      0.6613300000     17.5280000000
C               9.8858200000      1.2423700000     17.1383700000
C              11.1290500000      1.1731600000     17.8811300000
C              12.0418500000      2.2128200000     17.3372800000
C              11.4342900000      2.8060900000     16.2151300000
C              10.0942300000      2.2011700000     16.0095000000
C              12.0502600000      3.7990500000     15.4612800000
C              13.3152400000      4.2166400000     15.8612600000
C              13.9307900000      3.6419300000     16.9832200000
C              13.3157100000      2.6384900000     17.7295100000
F              15.1482700000      4.0765600000     17.3435800000
F              13.9618000000      5.1771700000     15.1803600000
C              11.4719700000      0.2409700000     18.8713900000
C              12.6824400000      0.2908300000     19.6268700000
N              13.6459400000      0.2830800000     20.2865500000
O               9.3218600000      2.4644600000     15.0984700000
C               6.2952200000     -0.4112600000     19.0860500000
C               4.5121100000      1.3228800000     12.5126500000
C               3.2420800000     -0.2744000000     10.0541000000
C              -3.0759300000     -0.5920800000      7.0149000000
O               1.8706100000      1.3193600000      4.7699100000
C              -1.4779600000     -0.9294600000      2.0248900000
C              -1.8850600000     -1.0284800000      0.6600800000
N              -2.2703000000     -1.1480400000     -0.4357600000
F               3.3155100000      3.1811200000     -0.0567200000
F               1.4142600000      2.0646200000     -1.6166900000
C              10.6961000000     -0.9155500000     19.1900500000
N              10.1356400000     -1.8972600000     19.4825700000
C              -2.1279600000     -1.8998000000      2.8475300000
N              -2.6768000000     -2.7378800000      3.4473500000
H              13.8457100000      2.2433400000     18.5817200000
H              11.5731600000      4.2392200000     14.5959500000
H               8.6911100000      0.2139000000     18.5130400000
H               6.6972800000      0.3915100000     19.7079200000
H               6.9003300000     -1.3052900000     19.2528100000
H               5.2873000000     -0.6238800000     19.4414800000
H               4.8217200000      2.1584500000     13.1391500000
H               3.8041600000      1.7055800000     11.7844900000
H               5.3825500000      0.9088100000     12.0055200000
H               3.1202100000     -1.0378100000      9.2867300000
H               3.9682100000     -0.6446400000     10.7707800000
H               3.6055700000      0.6443200000      9.5956600000
H              -3.4548400000      0.1763100000      6.3377700000
H              -3.6914900000     -0.5683400000      7.9138300000
H              -3.2228200000     -1.5648500000      6.5395900000
H              -1.8482600000     -0.4906500000      4.7772500000
H               3.1475000000      2.6253800000      2.5111700000
H              -0.3375100000      0.5940700000     -0.4496600000

  eps=3.36
  epsinf=3.36
  RSolv=7.28
 
