%mem=800MW
%nprocshared=32
%chk=IT-4Cl-HSO-scan-160-S1fromT1.chk
%rwf=IT-4Cl-HSO-scan-160-S1fromT1.rwf
#p wB97XD/6-31g** td(50-50,nstates=5) 6D 10F nosymm GFInput scf=(MaxCycle=20000) iop(3/107=0001100000,3/108=0001100000) SCRF=(PCM,Solvent=Generic,Read)

 HSO

0 1
C              -0.1064000000     -0.2799300000     -0.2122900000
C              -0.0769500000     -0.1411200000      1.1829800000
C               1.1807100000     -0.0753700000      1.8052600000
C               2.3581200000     -0.1255300000      1.0563700000
C               2.3318600000     -0.2498800000     -0.3427700000
C               1.0740100000     -0.3294500000     -0.9587700000
C              -1.3829700000     -0.1909400000      2.0185900000
C              -2.6328700000      0.1860600000      1.2105600000
C              -3.4992200000     -0.9325200000      1.0910500000
C              -2.9582400000     -2.0714800000      1.7237500000
C              -1.6973700000     -1.6829400000      2.3075300000
S              -4.9780700000     -0.5967300000      0.2078600000
C              -4.4401000000      1.0697000000     -0.0129500000
C              -3.1684000000      1.3114900000      0.5986900000
C              -5.0067400000      2.1585700000     -0.6498700000
C              -4.1899300000      3.3165100000     -0.5579500000
S              -2.6960700000      2.9749800000      0.3606800000
C              -0.9283300000     -2.5968000000      2.9843500000
C              -1.4166200000     -3.9280700000      3.0957500000
C              -2.6830500000     -4.3142300000      2.5247300000
C              -3.4486800000     -3.4027400000      1.8405500000
C              -0.8610700000     -5.0757300000      3.7039400000
C              -1.6968900000     -6.2063500000      3.5365000000
C              -2.9749200000     -5.8175800000      2.7788200000
S               0.6119300000     -5.4013000000      4.5986100000
C               0.1126700000     -7.0862000000      4.7521700000
C              -1.1483700000     -7.3392300000      4.1336700000
S              -1.6002600000     -9.0204700000      4.3041300000
C              -0.1071200000     -9.3686200000      5.2052600000
C               0.6892800000     -8.1954000000      5.3419000000
C              -4.3936900000      4.6449400000     -0.9874200000
C              -5.3082400000      5.1969400000     -1.8954000000
C              -6.0275800000      4.4806900000     -2.9934800000
C              -6.5276700000      5.5428800000     -3.9151800000
C              -6.2108500000      6.8083900000     -3.3926800000
C              -5.5169500000      6.6221800000     -2.0867500000
C              -7.1942900000      5.3811200000     -5.1199600000
C              -7.5550400000      6.5262200000     -5.8434200000
C              -7.2411300000      7.8024400000     -5.3348900000
C              -6.5734600000      7.9501200000     -4.1081700000
Cl             -8.3849400000      6.3231600000     -7.3700500000
Cl             -7.6667400000      9.2569600000     -6.2100900000
O              -6.1621900000      3.2771300000     -3.1671200000
C              -5.2215600000      7.6403200000     -1.1779900000
C              -5.3935200000      9.0338500000     -1.4526600000
N              -5.4979400000     10.1854500000     -1.6127100000
C              -1.3606400000      0.6867300000      3.2987500000
C              -0.7169900000      1.9355000000      3.3070700000
C              -0.7657400000      2.7644900000      4.4291600000
C              -1.4647900000      2.3873500000      5.5879200000
C              -2.1180300000      1.1459200000      5.5709400000
C              -2.0713900000      0.3133800000      4.4490600000
C              -3.1162900000     -6.5178000000      1.4033100000
C              -4.3574700000     -6.5844700000      0.7499900000
C              -4.4710400000     -7.1372400000     -0.5274500000
C              -3.3515200000     -7.6425800000     -1.2082000000
C              -2.1105000000     -7.5604400000     -0.5580900000
C              -1.9930000000     -7.0060600000      0.7191200000
C              -4.1766400000     -6.0436000000      3.7380100000
C              -4.8332700000     -7.2846600000      3.7948800000
C              -5.8536300000     -7.5190500000      4.7181200000
C              -6.2600900000     -6.5293400000      5.6284500000
C              -5.5961000000     -5.2949300000      5.5752600000
C              -4.5730800000     -5.0571700000      4.6528700000
C               0.3232200000    -10.5904200000      5.7743400000
C              -0.1800600000    -11.8912800000      5.8122300000
C              -1.3723500000    -12.4008400000      5.0830700000
C              -1.3708600000    -13.8793900000      5.2524300000
C              -0.2847000000    -14.2538600000      6.0612700000
C               0.4378500000    -13.0222000000      6.4973600000
C              -0.0682300000    -15.6094200000      6.3170300000
C              -0.9470600000    -16.5568800000      5.7682800000
C              -2.0416900000    -16.1613000000      4.9733000000
C              -2.2540400000    -14.8016500000      4.7118900000
C              -3.4839700000     -8.2784300000     -2.5809500000
C              -7.3831500000     -6.7892600000      6.6169100000
O              -2.1981400000    -11.7581300000      4.4475800000
C               1.4577400000    -13.0005100000      7.4489200000
C               2.0151000000    -14.1720400000      8.0542000000
N               2.5236400000    -15.0773100000      8.5872900000
Cl             -0.6351100000    -18.2458300000      6.1039300000
Cl             -3.1525900000    -17.3273700000      4.2911600000
C              -1.4894500000      3.2838200000      6.8132300000
C               3.6151600000     -0.2692500000     -1.1542800000
C               2.0472500000    -11.8126000000      7.9900700000
N               2.5660400000    -10.8956900000      8.4928700000
C              -4.7780300000      7.4160900000      0.1657000000
N              -4.4431900000      7.3176700000      1.2796200000
H              -7.4274200000      4.3950200000     -5.4976800000
H              -6.3523900000      8.9469400000     -3.7628800000
H              -3.6954900000      5.3541900000     -0.5596900000
H              -5.9567100000      2.1621400000     -1.1556700000
H               0.0206600000     -2.3233200000      3.4226600000
H              -4.3960700000     -3.6768600000      1.3990700000
H               1.6365800000     -8.1987800000      5.8615100000
H               1.2735300000    -10.4565500000      6.2724800000
H               0.7553100000    -15.9645100000      6.9142900000
H              -3.0853700000    -14.4805000000      4.0993500000
H              -2.5992100000     -0.6309900000      4.4839300000
H               3.3101700000     -0.0646900000      1.5741800000
H               1.2536400000      0.0234500000      2.8810600000
H               1.0052000000     -0.4339700000     -2.0367900000
H              -1.0520100000     -0.3580900000     -0.7338200000
H              -2.6746600000      0.8168400000      6.4426300000
H              -0.2519700000      3.7198700000      4.3960200000
H              -0.1611400000      2.2676000000      2.4398900000
H              -5.2503500000     -6.2112500000      1.2355200000
H              -5.4493500000     -7.1755600000     -0.9958700000
H              -1.0116600000     -6.9539500000      1.1738100000
H              -1.2176900000     -7.9333700000     -1.0498300000
H              -4.0860800000     -4.0907500000      4.6616300000
H              -5.8740500000     -4.5028900000      6.2632600000
H              -6.3366700000     -8.4909000000      4.7268700000
H              -4.5607300000     -8.0776600000      3.1109400000
H              -1.6812200000      4.3251100000      6.5406900000
H              -2.2584600000      2.9738800000      7.5233200000
H              -0.5261500000      3.2559000000      7.3341700000
H               3.4669600000     -0.7381400000     -2.1292700000
H               3.9789400000      0.7494000000     -1.3295200000
H               4.4084300000     -0.8126900000     -0.6345800000
H              -7.2568900000     -7.7551800000      7.1137300000
H              -7.4282800000     -6.0169600000      7.3870100000
H              -8.3534100000     -6.8096700000      6.1088800000
H              -4.3129900000     -7.8450200000     -3.1449700000
H              -2.5716200000     -8.1539600000     -3.1686400000
H              -3.6730500000     -9.3540700000     -2.4916400000

  eps=4.88617
  epsinf=4.88617
  RSolv=8.36
 
