%mem=1000MW
%nprocshared=40
%Oldchk=ITIC-TDDFT-S1toT1-Triplet.chk
%chk=ITIC-NTO-T1.chk
#p wB97XD/6-31g** Geom=AllCheck Guess=(Read,Only) Density=(Check,Transition=1) Pop=(Minimal,NTO,SaveNTO)

0 1
