%mem=1000MW
%nprocshared=32
%chk=IT-4Cl-TDDFT-scan-130-T1.chk
#p wB97XD/6-31g** td=(triplet,nstates=1) scf=(MaxCycle=20000) iop(3/107=0001100000,3/108=0001100000) SCRF=(PCM,Solvent=Generic,Read)

IT-4Cl

0  1
C         -0.78900       -0.71506       -1.03359
C         -0.48808       -0.51176        0.32149
C          0.86582       -0.50570        0.69458
C          1.87550       -0.68106       -0.25429
C          1.57810       -0.87380       -1.61291
C          0.22339       -0.88820       -1.98031
C         -1.60889       -0.42179        1.39025
C         -2.97972       -0.05766        0.80285
C         -3.88168       -1.14321        0.94670
C         -3.25954       -2.25225        1.55756
C         -1.90608       -1.86618        1.87538
S         -5.49844       -0.81053        0.35059
C         -4.96853        0.81129       -0.10132
C         -3.59365        1.04190        0.21284
C         -5.60681        1.88875       -0.68403
C         -4.74379        3.01193       -0.85702
S         -3.10363        2.64934       -0.27629
C         -1.05834       -2.74340        2.50445
C         -1.54957       -4.04204        2.81552
C         -2.89318       -4.43831        2.47132
C         -3.74650       -3.55568        1.85714
C         -0.93438       -5.14264        3.44878
C         -1.79939       -6.26538        3.49193
C         -3.15340       -5.92001        2.85532
S          0.63527       -5.42162        4.18041
C          0.13782       -7.07369        4.55091
C         -1.19450       -7.35197        4.11640
S         -1.63661       -9.00545        4.48127
C         -0.04781       -9.30537        5.22122
C          0.77053       -8.13914        5.16164
C         -5.24490        4.22762       -1.37576
C         -4.67869        5.46398       -1.69808
C         -3.22641        5.77389       -1.79509
C         -3.12428        7.11396       -2.43569
C         -4.41511        7.62102       -2.66297
C         -5.41343        6.64070       -2.14229
C         -1.97631        7.80678       -2.78801
C         -2.11445        9.05725       -3.40458
C         -3.40130        9.57816       -3.64792
C         -4.55419        8.86713       -3.27709
Cl        -0.66800        9.93123       -3.85575
Cl        -3.61791       11.13306       -4.42161
O         -2.28096        5.07724       -1.44950
C         -6.78437        6.88231       -2.03506
C         -7.43426        8.05345       -2.53910
N         -8.03576        8.97443       -2.92973
C         -1.31007        0.56493        2.55037
C         -0.61478        1.76270        2.32070
C         -0.42802        2.69593        3.34283
C         -0.93280        2.47755        4.63448
C         -1.63578        1.28314        4.85819
C         -1.82438        0.34735        3.83826
C         -3.42572       -6.69748        1.54002
C         -4.71961       -6.76755        0.99807
C         -4.95259       -7.38424       -0.23293
C         -3.90649       -7.95555       -0.97587
C         -2.61398       -7.87438       -0.43589
C         -2.37684       -7.25460        0.79372
C         -4.25481       -6.08983        3.93495
C         -4.91953       -7.31593        4.10261
C         -5.85555       -7.49433        5.12296
C         -6.16347       -6.46029        6.02238
C         -5.48623       -5.24193        5.86142
C         -4.54713       -5.06033        4.84223
C          0.43659      -10.48505        5.83250
C         -0.06288      -11.77641        6.01287
C         -1.31390      -12.33312        5.43093
C         -1.27608      -13.80071        5.67671
C         -0.11755      -14.12094        6.40461
C          0.62256      -12.86023        6.70728
C          0.13985      -15.45851        6.71190
C         -0.76902      -16.44265        6.29082
C         -1.93395      -16.10082        5.57502
C         -2.18945      -14.75885        5.26474
C         -4.16889       -8.65777       -2.29630
C         -7.20754       -6.65367        7.10798
O         -2.20594      -11.73223        4.84633
C          1.71732      -12.77044        7.56826
C          2.35041      -13.89775        8.18221
N          2.92292      -14.76516        8.71354
Cl        -0.40348      -18.10887        6.68220
Cl        -3.07929      -17.31321        5.04851
C         -0.70533        3.48476        5.74775
C          2.67495       -1.03464       -2.65073
C          2.31661      -11.54336        8.00015
N          2.84700      -10.58929        8.41408
C         -7.71159        6.02494       -1.35952
N         -8.52593        5.39376       -0.81059
H         -0.99678        7.39128       -2.59542
H         -5.51433        9.30888       -3.48711
H         -6.30630        4.14871       -1.56938
H         -6.64706        1.91178       -0.97502
H         -0.04446       -2.46871        2.75721
H         -4.75962       -3.83182        1.60220
H          1.77352       -8.11901        5.56274
H          1.43491      -10.32730        6.21762
H          1.01728      -15.77379        7.25209
H         -3.07673      -14.47918        4.71351
H         -2.38256       -0.55371        4.05943
H          2.90982       -0.66521        0.07468
H          1.14486       -0.35517        1.72995
H         -0.05155       -1.03891       -3.01939
H         -1.81877       -0.74641       -1.36666
H         -2.04979        1.07688        5.84007
H          0.11549        3.60926        3.12303
H         -0.20557        1.97691        1.34220
H         -5.56032       -6.34669        1.53517
H         -5.96767       -7.42108       -0.61574
H         -1.35909       -7.20573        1.15949
H         -1.77432       -8.29847       -0.97722
H         -4.04669       -4.10345        4.76384
H         -5.68858       -4.41874        6.53924
H         -6.34973       -8.45602        5.21651
H         -4.72053       -8.13994        3.42992
H         -0.69539        4.50744        5.36329
H         -1.48077        3.41872        6.51398
H          0.25886        3.31044        6.23857
H          2.38196       -1.73854       -3.43351
H          2.89281       -0.07688       -3.13630
H          3.60288       -1.39534       -2.20179
H         -7.10619       -7.63091        7.58728
H         -7.12996       -5.88782        7.88220
H         -8.21787       -6.59893        6.68775
H         -5.05035       -8.25109       -2.79706
H         -3.31936       -8.56418       -2.97686
H         -4.34533       -9.72755       -2.13757

  eps=4.88617
  epsinf=4.88617
  RSolv=8.36
 
