%mem=800MW
%nprocshared=32
%chk=IT-4Cl-HSO-w-scan-100-T1fromS1.chk
%rwf=IT-4Cl-HSO-w-scan-100-T1fromS1.rwf
#p wB97XD/6-31g** td(50-50,nstates=5) 6D 10F nosymm GFInput scf=(MaxCycle=20000) iop(3/107=0001100000,3/108=0001100000) SCRF=(PCM,Solvent=Generic,Read)

 HSO

0 1
C               0.4953200000     -0.2872100000     -0.0160100000
C               0.3941400000     -0.1681100000      1.3774200000
C               1.5855200000     -0.1882700000      2.1222500000
C               2.8258100000     -0.3104600000      1.4942700000
C               2.9315600000     -0.4223700000      0.0976900000
C               1.7395500000     -0.4078600000     -0.6417300000
C              -0.9855800000     -0.1518800000      2.0880800000
C              -2.1390500000      0.2644900000      1.1647700000
C              -3.0163100000     -0.8303300000      0.9473300000
C              -2.5747100000     -1.9855000000      1.6252700000
C              -1.3810500000     -1.6294800000      2.3530600000
S              -4.3951500000     -0.4479100000     -0.0681800000
C              -3.8024100000      1.2087000000     -0.2083200000
C              -2.5857400000      1.4099900000      0.5196500000
C              -4.2885000000      2.3228500000     -0.8673600000
C              -3.4607300000      3.4610900000     -0.6761000000
S              -2.0571800000      3.0655900000      0.3575300000
C              -0.7310000000     -2.5591200000      3.1264600000
C              -1.2614400000     -3.8778800000      3.1746000000
C              -2.4424400000     -4.2400800000      2.4308500000
C              -3.1013600000     -3.3071300000      1.6688500000
C              -0.8245000000     -5.0328000000      3.8607000000
C              -1.6398100000     -6.1511300000      3.5629100000
C              -2.7711500000     -5.7474200000      2.6065500000
S               0.4804100000     -5.3768600000      4.9812200000
C              -0.0652900000     -7.0527500000      5.0576200000
C              -1.2119400000     -7.2904800000      4.2410800000
S              -1.7054600000     -8.9660800000      4.3303600000
C              -0.3900100000     -9.3295100000      5.4701700000
C               0.3880200000     -8.1672000000      5.7384400000
C              -3.5999800000      4.8046100000     -1.0838300000
C              -4.4482100000      5.4139000000     -2.0196700000
C              -5.1606200000      4.7546700000     -3.1569500000
C              -5.5913800000      5.8576000000     -4.0649200000
C              -5.2360100000      7.0961400000     -3.5050600000
C              -4.5917300000      6.8513200000     -2.1830900000
C              -6.2346200000      5.7503300000     -5.2884000000
C              -6.5296900000      6.9251900000     -5.9932700000
C              -6.1732400000      8.1751900000     -5.4491600000
C              -5.5299600000      8.2676100000     -4.2040800000
Cl             -7.3340000000      6.7911100000     -7.5413700000
Cl             -6.5154300000      9.6657500000     -6.3002900000
O              -5.3397600000      3.5622100000     -3.3657300000
C              -4.2880200000      7.8375600000     -1.2422500000
C              -4.3939900000      9.2424100000     -1.4922900000
N              -4.4458300000     10.4062700000     -1.6299100000
C              -1.0380000000      0.7395300000      3.3563400000
C              -0.3324900000      1.9523100000      3.4146400000
C              -0.4401100000      2.7971500000      4.5211200000
C              -1.2619400000      2.4723200000      5.6124000000
C              -1.9745100000      1.2651100000      5.5458000000
C              -1.8701200000      0.4176800000      4.4395200000
C              -2.6595800000     -6.4153700000      1.2105600000
C              -3.7547500000     -6.4324400000      0.3311300000
C              -3.6361900000     -6.9571900000     -0.9575300000
C              -2.4205800000     -7.4817800000     -1.4254000000
C              -1.3251400000     -7.4501900000     -0.5486600000
C              -1.4397000000     -6.9236600000      0.7402700000
C              -4.1220500000     -6.0007200000      3.3272800000
C              -4.7905600000     -7.2295300000      3.1978300000
C              -5.9613000000     -7.4914500000      3.9110300000
C              -6.5108800000     -6.5430500000      4.7898000000
C              -5.8336100000     -5.3223300000      4.9266100000
C              -4.6607700000     -5.0563300000      4.2137700000
C              -0.0869900000    -10.5536900000      6.1108500000
C              -0.5930300000    -11.8516000000      6.0407600000
C              -1.5846900000    -12.3686100000      5.0590500000
C              -1.5743700000    -13.8518100000      5.1943200000
C              -0.6888200000    -14.2197500000      6.2217000000
C              -0.1302400000    -12.9816300000      6.8390300000
C              -0.4855700000    -15.5748900000      6.4885700000
C              -1.1790600000    -16.5315100000      5.7303100000
C              -2.0791000000    -16.1440600000      4.7168700000
C              -2.2774700000    -14.7839200000      4.4462300000
C              -2.3008600000     -8.0901700000     -2.8113100000
C              -7.7947300000     -6.8343200000      5.5467400000
O              -2.2699700000    -11.7286200000      4.2720800000
C               0.6151300000    -12.9483300000      8.0171100000
C               1.0488500000    -14.1144300000      8.7252400000
N               1.4421500000    -15.0164000000      9.3530000000
Cl             -0.8848900000    -18.2197000000      6.0847900000
Cl             -2.9601000000    -17.3221000000      3.7706800000
C              -1.3940200000      3.4090600000      6.8001300000
C               4.2856300000     -0.5326800000     -0.5806300000
C               0.9879200000    -11.7510900000      8.7098500000
N               1.3110300000    -10.8250900000      9.3428500000
C              -3.9042600000      7.5707400000      0.1119000000
N              -3.6155400000      7.4396000000      1.2354700000
H              -6.5004900000      4.7834800000     -5.6932700000
H              -5.2745400000      9.2463400000     -3.8319100000
H              -2.9054700000      5.4788500000     -0.5984600000
H              -5.1879200000      2.3601200000     -1.4573700000
H               0.1612200000     -2.3083900000      3.6819800000
H              -3.9916400000     -3.5581300000      1.1103900000
H               1.2332500000     -8.1822500000      6.4113500000
H               0.7496700000    -10.4298400000      6.7855400000
H               0.1959600000    -15.9215500000      7.2478700000
H              -2.9610100000    -14.4703000000      3.6693200000
H              -2.4446400000     -0.5000500000      4.4340000000
H               3.7231000000     -0.3194100000      2.1052200000
H               1.5549100000     -0.1024800000      3.2012600000
H               1.7742400000     -0.4963400000     -1.7229200000
H              -0.3959800000     -0.2944600000     -0.6308600000
H              -2.6245300000      0.9759200000      6.3655400000
H               0.1261600000      3.7229700000      4.5291500000
H               0.3214600000      2.2426700000      2.6026800000
H              -4.7150800000     -6.0451500000      0.6481700000
H              -4.5082000000     -6.9577500000     -1.6040100000
H              -0.5616800000     -6.9126800000      1.3736900000
H              -0.3652900000     -7.8415300000     -0.8705300000
H              -4.1713600000     -4.1018200000      4.3610400000
H              -6.2188200000     -4.5634100000      5.6000800000
H              -6.4493900000     -8.4518500000      3.7794000000
H              -4.4082600000     -7.9911100000      2.5309300000
H              -2.1246300000      4.1979800000      6.5896100000
H              -1.7290900000      2.8803600000      7.6949500000
H              -0.4440400000      3.8974500000      7.0305200000
H               4.2031600000     -0.9941200000     -1.5669500000
H               4.7359100000      0.4571500000     -0.7155500000
H               4.9812800000     -1.1291300000      0.0149100000
H              -7.7473700000     -7.8071500000      6.0442400000
H              -7.9958800000     -6.0767300000      6.3064900000
H              -8.6517800000     -6.8588900000      4.8651700000
H              -3.0422500000     -7.6759900000     -3.4982700000
H              -1.3102300000     -7.9196200000     -3.2396200000
H              -2.4583600000     -9.1739200000     -2.7717500000

  eps=4.88617
  epsinf=4.88617
  RSolv=8.36
 
