%mem=800MW
%nprocshared=64
#p wB97XD/6-31g** opt td=(nstates=2,root=1) pop=esp scf=(MaxCycle=20000) nosymm iop(3/107=0000100000,3/108=0000100000) SCRF=(PCM,Solvent=Generic,Read)

IEICO-4Cl

0  1
   C    12.304932    -0.883864     9.671286        
   C    12.662995     0.035020     8.683521        
   C    13.979248     0.028400     8.193107        
   C    14.942538    -0.854117     8.648677        
   C    14.584991    -1.773434     9.637355        
   C    13.270693    -1.782562    10.141782        
   C    14.128113     1.082259     7.162029        
   C    12.814866     1.746518     7.044690        
   C    11.896453     1.102524     7.983926        
   C    12.520446     2.796973     6.192565        
   C    13.266418     3.529125     5.241746        
   C    12.662819     4.572589     4.519487        
   C    13.516408     5.208758     3.617806        
   C    14.818515     4.671266     3.612578        
   S    14.954621     3.358064     4.760231        
   C    15.934629     5.076353     2.817489        
   C    17.212291     4.512871     2.815532        
   C    18.087958     5.150835     1.926095        
   C    17.495201     6.196618     1.236439        
   S    15.839182     6.428509     1.665362        
   C    18.428440     6.816024     0.326241        
   C    19.653197     6.104157     0.444644        
   C    19.539474     4.959947     1.479713        
   C    20.762386     6.490682    -0.289663        
   C    20.629477     7.585150    -1.158053        
   C    19.400480     8.287904    -1.287758        
   C    18.296772     7.913352    -0.538946        
   C    19.529175     9.463808    -2.284609        
   C    21.001617     9.317762    -2.676591        
   C    21.577611     8.235821    -2.030124        
   S    23.230505     7.996483    -2.467602        
   C    23.157079     9.396815    -3.562358        
   C    21.885475     9.973376    -3.544740        
   C    18.673396     9.294233    -3.558619        
   C    18.537164    10.371470    -4.448751        
   C    17.847797    10.229309    -5.649160        
   C    17.263254     9.007479    -6.011529        
   C    17.403968     7.935873    -5.125353        
   C    18.097066     8.072901    -3.920639        
   C    16.491492     8.866888    -7.301663        
   C    19.217778    10.778639    -1.539479        
   C    17.898652    11.242919    -1.434665        
   C    17.597006    12.387582    -0.699610        
   C    18.596744    13.112797    -0.039135        
   C    19.911888    12.647464    -0.146964        
   C    20.218649    11.500683    -0.879130        
   C    24.282699     9.824720    -4.331652        
   S    24.172969    11.201686    -5.404957        
   C    25.858704    11.026696    -5.893532        
   C    26.441724     9.934078    -5.229333        
   C    25.575011     9.265097    -4.364609        
   C    19.670296     3.551667     0.859770        
   C    19.541392     3.324734    -0.514389        
   C    19.574751     2.029743    -1.034360        
   C    19.735662     0.915336    -0.205288        
   C    19.856275     1.144840     1.172040        
   C    19.825052     2.434591     1.695237        
   C    20.567863     5.207569     2.602830        
   C    20.249379     5.968326     3.733447        
   C    21.210712     6.247082     4.705108        
   C    22.525486     5.785232     4.582775        
   C    22.842262     5.025577     3.449214        
   C    21.885224     4.742157     2.477408        
   C    26.620302    11.798049    -6.799940        
   C    26.346917    12.900730    -7.590991        
   C    25.045587    13.593166    -7.673274        
   C    25.216323    14.702735    -8.640434        
   C    26.534128    14.702243    -9.126574        
   C    27.279617    13.582401    -8.488678        
   C    26.911750    15.671784   -10.056990        
   C    25.963465    16.613628   -10.475899        
   C    24.647285    16.597532    -9.976560        
   C    24.270142    15.627376    -9.045417        
   O    25.848988     8.184554    -3.594169        
   C    27.168975     7.648236    -3.656595        
   O    24.010580    13.324938    -7.072093        
   C    28.610447    13.287693    -8.736762        
   C    29.320425    12.212160    -8.120121        
   N    29.927606    11.343516    -7.634632        
   C    18.263207    14.339721     0.775531        
   C    19.803128    -0.482497    -0.772134        
   C    23.571453     6.109119     5.622561        
   O    13.222373     6.240944     2.790570        
   C    11.892634     6.755146     2.824633        
   C    10.561458     1.388858     8.219248        
   C     9.763689     0.682968     9.170798        
   N     9.081256     0.130803     9.937120        
   O    15.156665     1.333059     6.542549        
   C    29.423351    14.034244    -9.643455        
   N    30.117737    14.618421   -10.374488        
   C     9.831854     2.414686     7.543566        
   N     9.208827     3.243394     7.010656        
   H    15.948971    -0.829316     8.246407        
   H    11.310734    -0.933629    10.092251        
   H    11.623513     4.834305     4.673272        
   H    11.865558     7.566003     2.097085        
   H    11.646237     7.146288     3.818560        
   H    11.164741     5.985598     2.542555        
   H    17.475592     3.667911     3.440896        
   H    19.409242     4.161458    -1.191418        
   H    19.472167     1.887729    -2.107419        
   H    19.976303     0.300955     1.847061        
   H    19.931357     2.574414     2.766642        
   H    19.240606     6.345235     3.864771        
   H    20.928513     6.832751     5.576509        
   H    22.162349     4.133774     1.622366        
   H    23.852496     4.642415     3.326719        
   H    21.250840    11.172000    -0.938832        
   H    20.713907    13.191459     0.345874        
   H    17.100267    10.717935    -1.949589        
   H    16.565351    12.726796    -0.645115        
   H    18.967580    11.335568    -4.195415        
   H    17.762163    11.083102    -6.316960        
   H    18.188213     7.214683    -3.264139        
   H    16.966545     6.972954    -5.377338        
   H    17.360400     8.457700    -0.609683        
   H    21.710269     5.971457    -0.189557        
   H    21.629922    10.835393    -4.149643        
   H    18.003685    14.071668     1.807379        
   H    17.408163    14.878504     0.356303        
   H    19.109505    15.031151     0.822727        
   H    15.478669     9.277605    -7.206109        
   H    16.392703     7.818419    -7.596479        
   H    16.980467     9.404237    -8.120422        
   H    27.476257     9.661922    -5.396553        
   H    27.908305    15.729223   -10.471388        
   H    23.261988    15.596477    -8.647898        
   H    27.180863     6.799298    -2.973443        
   H    27.911006     8.388088    -3.334605        
   H    27.408134     7.306247    -4.670222        
   H    19.296337    -0.546653    -1.739260        
   H    19.340766    -1.210313    -0.098315        
   H    20.842304    -0.799043    -0.926271        
   H    23.117517     6.318755     6.595316        
   H    24.153851     6.993984     5.336726        
   H    24.279108     5.284141     5.749813        
   H    11.502583     3.166703     6.238152        
   H    27.631695    11.413618    -6.864293        
  Cl    26.461704    17.812050   -11.638364        
  Cl    23.465729    17.767332   -10.494975        
  Cl    15.788397    -2.889249    10.220453        
  Cl    12.796700    -2.917679    11.375775        
                                                   
  eps=4.97393                                      
  epsinf=4.97393                                   
  RSolv=8.87                                       
                                                   
                                                   
 
