%mem=800MW
%nprocshared=64
#p wB97XD/6-31g** opt td=(nstates=2,root=1) pop=esp scf=(MaxCycle=20000) nosymm iop(3/107=0000100000,3/108=0000100000) SCRF=(PCM,Solvent=Generic,Read)

IEICO-4Cl

0  1
C         12.48844       -0.54548       10.07493
C         12.81059        0.24518        8.96846
C         14.10739        0.16122        8.43088
C         15.07548       -0.69086        8.93875
C         14.74882       -1.49136       10.04230
C         13.46072       -1.40737       10.60702
C         14.22955        1.11932        7.29906
C         12.91979        1.81097        7.18431
C         12.01828        1.22674        8.17456
C         12.61863        2.86701        6.32764
C         13.32581        3.58156        5.32549
C         12.71081        4.64689        4.63463
C         13.52574        5.25592        3.67663
C         14.82252        4.68126        3.59484
S         14.97244        3.35345        4.74285
C         15.91281        5.05356        2.76253
C         17.19565        4.45951        2.73548
C         18.05376        5.06443        1.82462
C         17.46272        6.12781        1.12525
S         15.81370        6.39464        1.59312
C         18.37956        6.72480        0.21869
C         19.61313        5.99339        0.31882
C         19.49534        4.84044        1.34942
C         20.71319        6.37277       -0.41716
C         20.58551        7.49026       -1.27939
C         19.34467        8.20658       -1.39806
C         18.24860        7.83545       -0.65206
C         19.47718        9.39192       -2.38883
C         20.96084        9.25519       -2.75736
C         21.52621        8.13753       -2.12504
S         23.19044        7.90325       -2.55497
C         23.13799        9.34352       -3.60362
C         21.85266        9.93214       -3.58079
C         18.65994        9.20473       -3.69635
C         18.51975       10.27853       -4.59450
C         17.87249       10.11633       -5.81877
C         17.33700        8.87426       -6.20486
C         17.48146        7.80616       -5.30926
C         18.13336        7.96484       -4.08064
C         16.62204        8.71116       -7.53474
C         19.13999       10.70262       -1.63315
C         17.83013       11.20576       -1.60818
C         17.51003       12.34766       -0.86862
C         18.48168       13.03069       -0.12066
C         19.78895       12.51737       -0.13922
C         20.11195       11.37561       -0.87592
C         24.26709        9.79975       -4.33631
S         24.17570       11.25246       -5.32894
C         25.85958       11.10247       -5.82332
C         26.43692        9.95723       -5.23599
C         25.56768        9.23298       -4.41572
C         19.55566        3.42719        0.70804
C         19.34381        3.22149       -0.66178
C         19.30624        1.93127       -1.20188
C         19.47176        0.79599       -0.39600
C         19.67584        1.00547        0.97914
C         19.71478        2.29038        1.52065
C         20.55829        5.06236        2.45547
C         20.29860        5.88977        3.55911
C         21.28190        6.14099        4.51907
C         22.56704        5.58520        4.41303
C         22.82774        4.77042        3.30005
C         21.84587        4.51532        2.33907
C         26.63126       11.96063       -6.64915
C         26.37339       13.12326       -7.37140
C         25.04367       13.75029       -7.58570
C         25.24333       14.83383       -8.58706
C         26.60580       14.90055       -8.93047
C         27.35467       13.88560       -8.13745
C         27.01658       15.84149       -9.87825
C         26.06147       16.69501      -10.45362
C         24.70262       16.62051      -10.08875
C         24.28998       15.67434       -9.13990
O         25.83462        8.10661       -3.72686
C         27.14988        7.52812       -3.81422
O         23.97452       13.44668       -7.06919
C         28.74883       13.77169       -8.10952
C         29.48297       12.91253       -7.23181
N         30.15588       12.25365       -6.54042
C         18.13087       14.26155        0.69734
C         19.44840       -0.60624       -0.97873
C         23.63824        5.87633        5.44994
O         13.21308        6.28466        2.86513
C         11.89998        6.86873        2.94638
C         10.65213        1.46791        8.35752
C          9.85568        0.85144        9.37349
N          9.13736        0.39581       10.17397
O         15.23402        1.28987        6.61765
C         29.63438       14.54341       -8.92573
N         30.42138       15.12845       -9.56034
C          9.85049        2.32711        7.54129
N          9.12381        2.99913        6.92053
H         16.06069       -0.73789        8.49528
H         11.52050       -0.51758       10.54690
H         11.69482        4.94430        4.84510
H         11.88627        7.65470        2.19581
H         11.72931        7.30097        3.93450
H         11.13168        6.12809        2.71578
H         17.46476        3.62988        3.37072
H         19.19939        4.06299       -1.32690
H         19.14144        1.81604       -2.26850
H         19.80364        0.15489        1.64142
H         19.87411        2.40246        2.58591
H         19.32400        6.34530        3.68318
H         21.03736        6.77839        5.36304
H         22.09107        3.87147        1.50346
H         23.80761        4.31954        3.17808
H         21.13332       11.01600       -0.85476
H         20.57183       13.01442        0.42510
H         17.04784       10.71697       -2.17556
H         16.48693       12.71034       -0.88328
H         18.91439       11.25459       -4.34025
H         17.78643       10.97033       -6.48337
H         18.22582        7.10457       -3.43065
H         17.08351        6.82924       -5.56519
H         17.31340        8.37302       -0.71844
H         21.65367        5.84599       -0.33934
H         21.60998       10.81788       -4.14691
H         17.96054       13.99660        1.74694
H         17.22268       14.74253        0.32803
H         18.93656       14.99953        0.67473
H         15.65848        9.23201       -7.52725
H         16.42969        7.66067       -7.76115
H         17.21111        9.13082       -8.35524
H         27.46816        9.69186       -5.41290
H         28.04205       15.93837      -10.19442
H         23.25082       15.60136       -8.84937
H         27.11857        6.63975       -3.18869
H         27.90314        8.22043       -3.43263
H         27.37897        7.24536       -4.84379
H         19.00089       -0.62015       -1.97454
H         18.87793       -1.28939       -0.34376
H         20.46253       -1.01193       -1.06519
H         23.20918        5.97218        6.45034
H         24.15187        6.81768        5.22389
H         24.39391        5.08856        5.47931
H         11.62347        3.27427        6.43819
H         27.64530       11.59267       -6.72607
Cl        26.61992       17.85444      -11.64157
Cl        23.50041       17.68130      -10.79077
Cl        15.96759       -2.57065       10.68450
Cl        13.01670       -2.37391       11.99858
                                                  
  eps=4.97393                                      
  epsinf=4.97393                                   
  RSolv=8.87                                       
                                                   
