%mem=800MW
%nprocshared=64
#p wB97XD/6-31g** opt td=(nstates=2,root=1) pop=esp scf=(MaxCycle=20000) nosymm iop(3/107=0002300000,3/108=0002300000) SCRF=(PCM,Solvent=Generic,Read)

IT-2Cl

0  1
C         -0.47422        6.88974        3.40315
C         -1.57887        6.33947        4.06937
C         -1.55299        6.32920        5.47381
C         -0.47390        6.86557        6.17923
C          0.62623        7.43138        5.51506
C          0.60304        7.42743        4.11201
C         -2.73344        5.65441        3.29038
C         -2.80811        6.08525        1.81820
C         -2.51325        5.01051        0.97594
C         -2.20294        3.82316        1.73594
C         -2.35208        4.16098        3.10983
S         -2.60836        5.37608       -0.72875
C         -3.05557        7.03113       -0.32067
C         -3.12188        7.24038        1.08185
C         -3.34964        8.15367       -1.08084
C         -3.65424        9.29251       -0.28117
S         -3.54623        8.89744        1.44878
C         -2.12871        3.20733        4.09148
C         -1.74745        1.91782        3.67961
C         -1.57979        1.58561        2.30630
C         -1.81110        2.53692        1.32445
C         -1.45230        0.72538        4.43825
C         -1.06965       -0.32362        3.59859
C         -1.09969        0.12069        2.12893
S         -1.49442        0.31774        6.13559
C         -0.98525       -1.31993        5.72747
C         -0.80363       -1.49324        4.33038
S         -0.30580       -3.12858        3.96039
C         -0.33007       -3.56575        5.68313
C         -0.72630       -2.45479        6.48249
C         -4.01970       10.51474       -0.89486
C         -4.34074       11.79383       -0.43137
C         -4.19723       12.29168        0.97323
C         -4.42452       13.75699        0.92876
C         -4.73671       14.13534       -0.39156
C         -4.75232       12.91777       -1.25267
C         -4.35670       14.67611        1.96986
C         -4.59787       16.02578        1.69327
C         -4.90170       16.40245        0.37905
C         -4.98127       15.48266       -0.67668
H         -4.54972       16.76801        2.47859
Cl        -5.19889       18.10396        0.03026
O         -3.92959       11.63453        1.97010
C         -5.16376       12.89178       -2.59570
C         -5.47988       14.05778       -3.35948
N         -5.74393       14.96132       -4.05099
C         -4.13285        5.85328        3.93092
C         -4.47652        7.06187        4.55825
C         -5.75685        7.26736        5.07581
C         -6.75036        6.27911        4.98400
C         -6.40918        5.08019        4.33974
C         -5.12877        4.87145        3.82027
C          0.30709        0.17324        1.47561
C          0.44937        0.26121        0.08107
C          1.70655        0.40963       -0.50834
C          2.87479        0.47872        0.26756
C          2.72818        0.39652        1.66074
C          1.47165        0.25069        2.25364
C         -2.12065       -0.77059        1.37308
C         -1.71585       -1.94774        0.72412
C         -2.64709       -2.79732        0.12240
C         -4.02139       -2.51229        0.14860
C         -4.42352       -1.33978        0.80729
C         -3.49483       -0.48729        1.40915
C          0.00903       -4.79763        6.29311
C          0.39940       -6.05499        5.82270
C          0.39484       -6.51160        4.39680
C          0.63831       -7.97465        4.41999
C          0.83744       -8.38853        5.75151
C          0.76285       -7.19582        6.64388
C          1.07096       -9.74141        6.01880
C          1.09653      -10.63013        4.93397
C          0.90573      -10.21773        3.60925
C          0.67408       -8.86289        3.35093
C          4.24470        0.61177       -0.37361
C         -5.02793       -3.42764       -0.52549
O          0.21455       -5.82821        3.39809
C          1.06940       -7.20005        8.01465
C          1.35296       -8.38076        8.76845
N          1.58484       -9.29862        9.45258
Cl         1.38186      -12.33841        5.25924
H          0.93484      -10.93728        2.80215
C         -8.12843        6.49548        5.58339
C          1.77940        8.05199        6.28336
C          1.19576       -6.02897        8.82572
N          1.33733       -5.12327        9.54988
C         -5.37390       11.70332       -3.36286
N         -5.58746       10.78311       -4.05016
H         -4.12129       14.35445        2.97648
H         -5.21799       15.83608       -1.66661
H         -4.03086       10.40600       -1.97059
H         -3.36089        8.18781       -2.16064
H         -2.24474        3.44079        5.14008
H         -1.69429        2.30387        0.27580
H         -0.80506       -2.51768        7.55811
H         -0.07854       -4.72178        7.36823
H          1.22272      -10.12292        7.01485
H          0.52305       -8.51315        2.33751
H         -4.91788        3.93137        3.32637
H         -0.49571        6.84240        7.26431
H         -2.38130        5.90926        6.03061
H          1.43535        7.84940        3.55784
H         -0.43773        6.90071        2.32119
H         -7.14941        4.29271        4.23943
H         -5.97898        8.21385        5.55831
H         -3.74208        7.85035        4.65880
H         -0.42137        0.20758       -0.56046
H          1.77340        0.47237       -1.58997
H          1.41111        0.20481        3.33345
H          3.60415        0.44826        2.29964
H         -3.85718        0.40039        1.91235
H         -5.47732       -1.08450        0.85845
H         -2.29092       -3.69709       -0.36892
H         -0.66723       -2.21093        0.67741
H         -8.49102        7.50927        5.39468
H         -8.85928        5.79390        5.17604
H         -8.10485        6.35446        6.66977
H          2.72099        7.96098        5.73684
H          1.60124        9.11960        6.45424
H          1.90953        7.58113        7.26050
H         -4.75103       -4.47853       -0.41041
H         -6.02932       -3.29579       -0.11011
H         -5.08639       -3.22027       -1.59986
H          4.18260        1.08266       -1.35712
H          4.91824        1.20920        0.24556
H          4.70884       -0.37176       -0.50778
                                                   
  eps=4.57494                                      
  epsinf=4.57494                                   
  RSolv=7.71                                       
                                                   
