%mem=1000MW
%nprocshared=40
#p wB97XD/6-31g** nosymm pop=esp opt td=(nstates=2,root=1) scf=(MaxCycle=20000) iop(3/107=0016000000,3/108=0016000000) SCRF=(PCM,Solvent=Generic,Read)

 Y6 opt-TDdft

0 1
C         13.88814        2.40933       16.90277
C         12.58118        2.03647       16.57015
C         11.94591        2.65723       15.47854
C         12.56534        3.62687       14.69763
C         13.86314        3.99263       15.03887
C         14.50684        3.39043       16.13023
C         10.57549        2.10490       15.33295
C         10.38087        1.15375       16.47120
C         11.65478        1.03059       17.15253
C          9.16552        0.62968       16.92553
C          7.85529        0.57380       16.39715
C          6.74376        0.08948       17.16561
C          5.58739        0.01953       16.38507
C          5.74885        0.43406       15.04428
S          7.37760        0.96212       14.72915
S          3.93674       -0.51811       16.75238
C          3.48433       -0.17748       15.10009
C          4.54717        0.31748       14.31989
C          2.34070       -0.22756       14.28156
C          2.75771        0.20169       12.98658
N          4.09977        0.57003       13.03276
C          0.95547       -0.50970       14.53899
C         -0.01652       -0.32708       13.47975
C          0.43753       -0.00369       12.15494
C          1.82985        0.17330       11.89652
C         -0.20899        0.08765       10.90811
C          0.78336        0.26378        9.92466
N          2.03113        0.29977       10.52503
C          0.25866        0.30969        8.61903
C         -1.14792        0.18482        8.62217
S         -1.82530       -0.00655       10.25145
C         -1.74684        0.24821        7.36196
C         -0.76223        0.42055        6.33109
S          0.87712        0.55102        7.00949
N         -1.27006       -0.55407       13.85773
S         -1.21297       -0.97743       15.45643
N          0.42125       -0.87611       15.69930
C         -1.10734        0.40875        4.95993
C         -0.40641        0.63656        3.77045
C         -0.95043        0.50773        2.43190
C          0.00198        1.15275        1.48998
C          1.14471        1.55516        2.20568
C          0.96234        1.22426        3.64021
C          2.24070        2.16042        1.60057
C          2.17533        2.37990        0.22895
C          1.03927        1.99408       -0.49807
C         -0.05178        1.37559        0.10924
F          3.19708        2.96558       -0.41698
F          1.00986        2.22927       -1.81903
C         -2.11743       -0.17032        2.04846
C         -2.87898       -1.01978        2.90735
N         -3.53466       -1.75533        3.53397
O          1.78063        1.41910        4.52845
C         -3.23047        0.13973        7.11679
C          3.26249       -0.01068        9.78303
C          4.77933        1.52580       12.14409
C          6.81682       -0.29455       18.62190
C         12.00612        0.07927       18.12140
C         11.20410       -1.05291       18.46174
N         10.62168       -2.01813       18.76591
O          9.77479        2.39786       14.45621
F         14.51529        4.92883       14.32992
F         15.75590        3.77564       16.43407
C         13.24834        0.08144       18.82505
N         14.23798        0.03676       19.44327
C         -2.64943       -0.14737        0.72371
N         -3.14524       -0.15703       -0.33354
H         14.44123        1.99016       17.72845
H         12.06700        4.08718       13.85503
H          9.21562        0.17939       17.90821
H          7.35315       -1.23704       18.75533
H          5.81939       -0.42167       19.04201
H          7.32410        0.47139       19.21215
H          5.17639        2.34559       12.74144
H          4.06051        1.94690       11.44856
H          5.59194        1.04898       11.59751
H          3.04074       -0.76572        9.03023
H          3.99718       -0.43212       10.46162
H          3.66775        0.87583        9.29720
H         -3.48313       -0.81202        6.64415
H         -3.59002        0.94433        6.47183
H         -3.78422        0.20006        8.05319
H         -2.15791        0.18953        4.82156
H          3.11592        2.45431        2.16440
H         -0.89047        1.10274       -0.51182

  eps=3.36
  epsinf=3.36
  RSolv=7.28

