%mem=1000MW
%nprocshared=40
#p wB97XD/6-31g** nosymm pop=esp opt td=(triplet,nstates=3,root=2) scf=(MaxCycle=20000) iop(3/107=0016000000,3/108=0016000000) SCRF=(PCM,Solvent=Generic,Read)

 Y6 opt-TDdft

0 1
C         13.88803        2.40948       16.90276
C         12.58107        2.03656       16.57022
C         11.94580        2.65709       15.47848
C         12.56524        3.62657       14.69736
C         13.86304        3.99240       15.03854
C         14.50674        3.39042       16.13003
C         10.57537        2.10475       15.33300
C         10.38081        1.15370       16.47134
C         11.65470        1.03075       17.15276
C          9.16549        0.62960       16.92567
C          7.85529        0.57358       16.39721
C          6.74373        0.08937       17.16567
C          5.58738        0.01942       16.38509
C          5.74892        0.43381       15.04427
S          7.37773        0.96164       14.72911
S          3.93668       -0.51809       16.75239
C          3.48434       -0.17753       15.10007
C          4.54724        0.31728       14.31986
C          2.34073       -0.22756       14.28153
C          2.75780        0.20155       12.98653
N          4.09990        0.56976       13.03269
C          0.95547       -0.50961       14.53898
C         -0.01648       -0.32701       13.47972
C          0.43764       -0.00372       12.15490
C          1.82997        0.17320       11.89648
C         -0.20887        0.08763       10.90807
C          0.78350        0.26369        9.92462
N          2.03128        0.29964       10.52499
C          0.25881        0.30961        8.61899
C         -1.14777        0.18483        8.62212
S         -1.82518       -0.00650       10.25140
C         -1.74669        0.24825        7.36190
C         -0.76207        0.42049        6.33105
S          0.87728        0.55092        7.00945
N         -1.27004       -0.55393       13.85767
S         -1.21297       -0.97725       15.45638
N          0.42124       -0.87596       15.69930
C         -1.10718        0.40866        4.95988
C         -0.40627        0.63639        3.77040
C         -0.95039        0.50763        2.43188
C          0.00191        1.15276        1.48994
C          1.14471        1.55511        2.20558
C          0.96256        1.22389        3.64006
C          2.24059        2.16053        1.60044
C          2.17508        2.38021        0.22886
C          1.03896        1.99443       -0.49811
C         -0.05199        1.37581        0.10923
F          3.19673        2.96603       -0.41709
F          1.00941        2.22984       -1.81902
C         -2.11747       -0.17034        2.04854
C         -2.87898       -1.01973        2.90753
N         -3.53449       -1.75520        3.53442
O          1.78079        1.41896        4.52829
C         -3.23033        0.13984        7.11675
C          3.26264       -0.01083        9.78301
C          4.77958        1.52533       12.14390
C          6.81669       -0.29449       18.62201
C         12.00605        0.07963       18.12182
C         11.20410       -1.05255       18.46227
N         10.62161       -2.01772       18.76647
O          9.77473        2.39742       14.45610
F         14.51518        4.92846       14.32941
F         15.75580        3.77569       16.43379
C         13.24820        0.08204       18.82558
N         14.23786        0.03778       19.44379
C         -2.64974       -0.14717        0.72391
N         -3.14563       -0.15653       -0.33332
H         14.44113        1.99046       17.72851
H         12.06691        4.08671       13.85468
H          9.21558        0.17944       17.90842
H          7.35298       -1.23697       18.75558
H          5.81924       -0.42154       19.04208
H          7.32395        0.47152       19.21219
H          5.17683        2.34510       12.74114
H          4.06077        1.94647       11.44838
H          5.59206        1.04830       11.59732
H          3.04084       -0.76581        9.03017
H          3.99727       -0.43239       10.46161
H          3.66799        0.87566        9.29722
H         -3.48304       -0.81192        6.64416
H         -3.58983        0.94443        6.47174
H         -3.78407        0.20025        8.05314
H         -2.15777        0.18947        4.82152
H          3.11587        2.45437        2.16423
H         -0.89074        1.10302       -0.51179

  eps=3.36
  epsinf=3.36
  RSolv=7.28


