%mem=800MW
%nprocshared=64
%chk=IEICO-4F-HSO-w-00004-T2paraS1.chk
%rwf=IEICO-4F-HSO-w-00004-T2paraS1.rwf
#p wB97XD/6-31g** td(50-50,nstates=5) 6D 10F nosymm GFInput scf=(MaxCycle=20000) iop(3/107=0000400000,3/108=0000400000) SCRF=(PCM,Solvent=Generic,Read)

IEICO-4F

0  1
C              12.2903400000     -0.8623200000      9.7675100000
C              12.6642200000      0.0178500000      8.7445500000
C              13.9640100000     -0.0667100000      8.2132200000
C              14.9009800000     -0.9979100000      8.6492500000
C              14.5155900000     -1.8712100000      9.6618800000
C              13.2275800000     -1.7939400000     10.2117900000
C              14.1301200000      0.9761900000      7.1680200000
C              12.8380100000      1.7111800000      7.0853700000
C              11.9215200000      1.1049100000      8.0410600000
C              12.5592700000      2.7984500000      6.2550600000
C              13.2842900000      3.5325800000      5.2839400000
C              12.6764600000      4.6118700000      4.6001500000
C              13.5051200000      5.2423700000      3.6747700000
C              14.8141300000      4.6775100000      3.6069200000
S              14.9466700000      3.3233900000      4.7333400000
C              15.9163300000      5.0732700000      2.8043000000
C              17.2065800000      4.4996700000      2.7961800000
C              18.0760000000      5.1314000000      1.9024300000
C              17.4822400000      6.1820800000      1.2088900000
S              15.8245400000      6.4243600000      1.6442000000
C              18.4177900000      6.8036400000      0.3012300000
C              19.6434600000      6.0882900000      0.4184600000
C              19.5294000000      4.9330200000      1.4480500000
C              20.7553000000      6.4814400000     -0.3114700000
C              20.6225900000      7.5860200000     -1.1721500000
C              19.3911100000      8.2888100000     -1.3050700000
C              18.2842200000      7.9066300000     -0.5618200000
C              19.5187000000      9.4739700000     -2.2979200000
C              21.0044800000      9.3447500000     -2.6670000000
C              21.5767700000      8.2471600000     -2.0311100000
S              23.2374100000      8.0112700000     -2.4597000000
C              23.1779100000      9.4343700000     -3.5328300000
C              21.8926200000     10.0181100000     -3.5103200000
C              18.6993400000      9.2833900000     -3.6033100000
C              18.5534800000     10.3554400000     -4.5026300000
C              17.9044400000     10.1900400000     -5.7256800000
C              17.3720100000      8.9460000000     -6.1093700000
C              17.5213200000      7.8796300000     -5.2126000000
C              18.1748800000      8.0418600000     -3.9852100000
C              16.6549100000      8.7791200000     -7.4377300000
C              19.1747100000     10.7842200000     -1.5438200000
C              17.8604900000     11.2757400000     -1.5117900000
C              17.5338500000     12.4164000000     -0.7730100000
C              18.5033100000     13.1102500000     -0.0324100000
C              19.8152400000     12.6093900000     -0.0584400000
C              20.1446000000     11.4692300000     -0.7949200000
C              24.2966100000      9.8721100000     -4.2894500000
S              24.1883600000     11.2909100000     -5.3359500000
C              25.8623700000     11.1141200000     -5.8612000000
C              26.4552200000      9.9948800000     -5.2304100000
C              25.6059700000      9.3091600000     -4.3646100000
C              19.6327400000      3.5215200000      0.8086700000
C              19.4503500000      3.3109500000     -0.5651700000
C              19.4663600000      2.0218400000     -1.1078300000
C              19.6598900000      0.8908600000     -0.3011600000
C              19.8265400000      1.1039000000      1.0777600000
C              19.8107700000      2.3888500000      1.6220900000
C              20.5731500000      5.1739900000      2.5691800000
C              20.2822500000      5.9862200000      3.6761800000
C              21.2494400000      6.2550900000      4.6479700000
C              22.5489400000      5.7323200000      4.5519000000
C              22.8407700000      4.9317600000      3.4363600000
C              21.8752800000      4.6594700000      2.4638500000
C              26.6071000000     11.9040300000     -6.7718900000
C              26.3416900000     13.0348400000     -7.5467200000
C              25.0473800000     13.7670900000     -7.6193400000
C              25.2234400000     14.8510300000     -8.6198700000
C              26.5350600000     14.8012900000     -9.1257800000
C              27.2740000000     13.6933900000     -8.4513000000
C              26.9201100000     15.7259800000    -10.1043600000
C              25.9815600000     16.6642400000    -10.5319800000
C              24.6812600000     16.7053700000    -10.0078400000
C              24.2851400000     15.7886300000     -9.0387500000
O              25.8865300000      8.2209400000     -3.6281300000
C              27.2063000000      7.6475600000     -3.6964400000
O              24.0208300000     13.5383600000     -6.9906000000
C              28.6269200000     13.4041500000     -8.6728500000
C              29.3773500000     12.3874500000     -8.0021200000
N              30.0666500000     11.5879600000     -7.5014200000
C              18.1457100000     14.3393100000      0.7854900000
C              19.7215000000     -0.5060700000     -0.8940100000
C              23.6027700000      6.0429600000      5.6009100000
O              13.2060400000      6.2820600000      2.8779700000
C              11.8883600000      6.8607800000      2.9412700000
C              10.5787800000      1.4223300000      8.2850000000
C               9.7631900000      0.7690700000      9.2619500000
N               9.0307500000      0.2913200000     10.0362400000
O              15.1485700000      1.1761100000      6.5167500000
C              29.4585600000     14.1110900000     -9.5975000000
N              30.2040700000     14.6330500000    -10.3296100000
C               9.8243000000      2.4209600000      7.5919600000
N               9.1320700000      3.2086300000      7.0767400000
H              15.8937500000     -1.0528200000      8.2230300000
H              11.3200000000     -0.8630600000     10.2370600000
H              11.6549200000      4.8989000000      4.7965200000
H              11.8877100000      7.6580200000      2.2028200000
H              11.6977200000      7.2758000000      3.9327700000
H              11.1289300000      6.1202900000      2.6836100000
H              17.4774000000      3.6675100000      3.4275800000
H              19.2898600000      4.1492600000     -1.2306600000
H              19.3250300000      1.9031400000     -2.1775300000
H              19.9716000000      0.2569600000      1.7411800000
H              19.9466300000      2.5038300000      2.6903400000
H              19.2954900000      6.4167500000      3.7929800000
H              20.9806300000      6.8804100000      5.4937100000
H              22.1450800000      4.0268200000      1.6272900000
H              23.8325000000      4.5053800000      3.3215300000
H              21.1695800000     11.1197600000     -0.7805500000
H              20.5969600000     13.1153000000      0.4997200000
H              17.0794200000     10.7785000000     -2.0735900000
H              16.5071300000     12.7691200000     -0.7821100000
H              18.9456800000     11.3330200000     -4.2501300000
H              17.8144900000     11.0430500000     -6.3911600000
H              18.2716600000      7.1829900000     -3.3339900000
H              17.1256600000      6.9011900000     -5.4665500000
H              17.3459200000      8.4378100000     -0.6385200000
H              21.6993400000      5.9627900000     -0.2214700000
H              21.6416600000     10.8938800000     -4.0884700000
H              17.9758200000     14.0736800000      1.8350100000
H              17.2353000000     14.8157500000      0.4155600000
H              18.9475400000     15.0815200000      0.7634500000
H              15.6899900000      9.2974800000     -7.4295700000
H              16.4647500000      7.7277600000     -7.6621400000
H              17.2413600000      9.1987600000     -8.2601600000
H              27.4814700000      9.7202800000     -5.4201900000
H              27.8997300000     15.7567700000    -10.5529300000
H              23.2829000000     15.8151100000     -8.6324600000
H              27.1906000000      6.8037000000     -3.0118300000
H              27.9576400000      8.3702500000     -3.3725800000
H              27.4221100000      7.2987400000     -4.7080900000
H              19.1731200000     -0.5679500000     -1.8365700000
H              19.3054400000     -1.2498200000     -0.2099900000
H              20.7592100000     -0.7938100000     -1.0977700000
H              23.1594200000      6.1431600000      6.5945800000
H              24.1108900000      6.9870900000      5.3737900000
H              24.3655100000      5.2626700000      5.6475200000
H              11.5637200000      3.2052700000      6.3571500000
H              27.6051000000     11.5040800000     -6.8767000000
F              23.8215600000     17.6392400000    -10.4535900000
F              26.3296200000     17.5594900000    -11.4734300000
F              12.8905000000     -2.6476300000     11.1948300000
F              15.3737600000     -2.7976800000     10.1258000000
 
 eps=4.99
 epsinf=4.99
 RSolv=7.92
 
