%mem=800MW
%nprocshared=32
%chk=Y6-HSO-scan-70-T1fromS1.chk
%rwf=Y6-HSO-scan-70-T1fromS1.rwf
#p wB97XD/6-31g** td(50-50,nstates=5) 6D 10F nosymm GFInput scf=(MaxCycle=20000) iop(3/107=0016000000,3/108=0016000000) SCRF=(PCM,Solvent=Generic,Read)

 HSO

0 1
C              -0.2370000000      0.0232800000     -0.0353800000
C              -0.1138100000     -0.1293200000      1.3513700000
C               1.1236900000      0.1237700000      1.9717000000
C               2.2565700000      0.5039000000      1.2569800000
C               2.1251200000      0.6477100000     -0.1180400000
C               0.8896200000      0.4163600000     -0.7492500000
C              -1.0866500000     -0.5565700000      2.3864700000
C              -0.4495200000     -0.3376800000      3.6962700000
C               0.9931500000     -0.0541300000      3.4402500000
C              -1.1263200000     -0.2080500000      4.8882600000
C              -0.7292500000      0.0100700000      6.2439500000
S               0.9207500000     -0.1329500000      6.8768100000
C               0.3458000000      0.1187000000      8.4895100000
C              -1.0425800000      0.3462400000      8.5211900000
C              -1.6716600000      0.2862400000      7.2653000000
S              -1.6703600000      0.6647800000     10.1474400000
C              -0.0505200000      0.4886400000     10.7762100000
C               0.9106600000      0.2094200000      9.7813200000
N               2.1522600000      0.0548800000     10.3577100000
C               1.9986000000      0.2662900000     11.7286600000
C               0.6082000000      0.4960200000     12.0097400000
C               2.9450500000      0.3091000000     12.7797800000
C               2.4936300000      0.3016000000     14.1509100000
C               1.0916700000      0.4342700000     14.4511000000
C               0.1481600000      0.5983200000     13.3697300000
N               4.3384800000      0.3203600000     12.7623600000
C               4.7640100000      0.2415900000     14.0729600000
C               3.6355400000      0.2274500000     14.9415100000
C               5.9790400000      0.1981700000     14.7614000000
C               5.7796000000      0.1436700000     16.1609900000
S               4.0712100000      0.1546300000     16.6305600000
C               6.9593300000      0.0674200000     16.9277600000
C               8.0868300000      0.0771100000     16.0965000000
S               7.6779600000      0.1387500000     14.3821800000
N              -1.1044500000      0.7745800000     13.7720100000
S              -1.0800600000      0.7285000000     15.4260800000
N               0.5401800000      0.4828700000     15.6572200000
C               9.4935300000     -0.1038800000     16.4843300000
C              10.3947500000      0.8978400000     16.7541100000
C              11.7864900000      0.8199400000     17.1366200000
C              12.2709500000      2.1988800000     17.3357300000
C              11.2275400000      3.1182900000     17.0759200000
C              10.0139800000      2.3583500000     16.7000800000
C              11.3811000000      4.4946500000     17.1815000000
C              12.6286300000      4.9808100000     17.5639500000
C              13.6740900000      4.0883000000     17.8284900000
C              13.5213900000      2.7062600000     17.7218800000
F              14.8689300000      4.5876800000     18.2000100000
F              12.8405900000      6.3099700000     17.6848700000
C              12.5702300000     -0.3607400000     17.2959400000
C              13.9403600000     -0.3608000000     17.6702500000
N              15.0701200000     -0.4215400000     17.9749600000
O               8.9207500000      2.8229200000     16.4069500000
C               7.0167200000     -0.0081700000     18.4317100000
C               5.2052200000      0.8379700000     11.6904500000
C               3.2450900000     -0.6685300000      9.6884900000
C              -3.1541700000      0.4837900000      7.0568900000
O               1.8946600000      0.0473200000      4.2594500000
C              -2.3031900000     -1.1654700000      2.1434000000
C              -2.8590000000     -1.3411200000      0.8341600000
N              -3.3661400000     -1.5070100000     -0.2019300000
F               3.1723400000      1.0182900000     -0.8657500000
F               0.8066800000      0.5842000000     -2.0753800000
C              12.0772800000     -1.6761900000     17.0903500000
N              11.7263800000     -2.7838400000     16.9340600000
C              -3.1162400000     -1.7654400000      3.1609700000
N              -3.8110000000     -2.2980500000      3.9304100000
H              14.3726000000      2.0821200000     17.9446600000
H              10.5655800000      5.1758900000     16.9770100000
H               9.8010500000     -1.1405000000     16.5421100000
H               8.0443500000     -0.1196500000     18.7729700000
H               6.4390300000     -0.8596900000     18.8009600000
H               6.6047900000      0.8997200000     18.8803400000
H               5.8732200000      1.5879400000     12.1104900000
H               4.5938700000      1.3292600000     10.9401800000
H               5.7928400000      0.0422700000     11.2366600000
H               2.8169000000     -1.4401600000      9.0512400000
H               3.8584500000     -1.1662400000     10.4330100000
H               3.8541900000      0.0011200000      9.0836900000
H              -3.6530400000     -0.4724900000      6.8852800000
H              -3.3615900000      1.1375200000      6.2087700000
H              -3.6102400000      0.9401300000      7.9347300000
H              -2.2045500000     -0.2501700000      4.8004400000
H               3.2057300000      0.6859300000      1.7424200000
H              -1.1578100000     -0.1303200000     -0.5758100000

  eps=3.36
  epsinf=3.36
  RSolv=7.28
 
