%mem=1000MW
%nprocshared=40
#p wB97XD/6-31g** nosymm pop=esp opt td=(triplet,nstates=3,root=2) scf=(MaxCycle=20000) iop(3/107=0016000000,3/108=0016000000) SCRF=(PCM,Solvent=Generic,Read)

 Y6 opt-TDdft

0 1
C          0.03727        0.64519        0.05356
C          0.10240        0.42309        1.43448
C          1.26287        0.79859        2.13732
C          2.36672        1.37310        1.51783
C          2.29067        1.59017        0.14570
C          1.13640        1.23400       -0.56785
C         -0.85544       -0.19264        2.38878
C         -0.29693       -0.04431        3.72864
C          1.08411        0.48950        3.57933
C         -1.00384       -0.21015        4.91647
C         -0.66724       -0.14634        6.29359
S          0.97272       -0.03754        6.97328
C          0.33792       -0.16259        8.58751
C         -1.07405       -0.24051        8.58525
C         -1.66084       -0.23288        7.31790
S         -1.77483       -0.30501       10.21683
C         -0.16224       -0.21920       10.88461
C          0.84998       -0.14121        9.89243
N          2.09127       -0.10011       10.49686
C          1.87920       -0.11183       11.87937
C          0.46126       -0.23428       12.12902
C          2.77336        0.01689       12.95833
C          2.32021       -0.24742       14.30507
C          0.92238       -0.47120       14.56596
C         -0.02390       -0.40135       13.47404
N          4.13371        0.33844       12.99889
C          4.54387        0.21840       14.31215
C          3.43970       -0.14811       15.12590
C          5.72859        0.38508       15.04301
C          5.52688        0.14468       16.42182
S          3.85243       -0.30138       16.81732
C          6.66794        0.28527       17.21486
C          7.80283        0.64347       16.42220
S          7.37734        0.82031       14.70458
N         -1.28749       -0.56025       13.84731
S         -1.27123       -0.79157       15.48820
N          0.36187       -0.68819       15.74923
C          9.10313        0.75670       16.98045
C         10.33897        1.17944       16.49754
C         11.58835        1.17213       17.25234
C         12.55987        2.02362       16.51800
C         11.98104        2.42118       15.29835
C         10.60106        1.87945       15.21047
C         12.65128        3.20054       14.36283
C         13.94556        3.60365       14.67467
C         14.53487        3.22469       15.89002
C         13.86435        2.43339       16.82037
F         15.78241        3.64190       16.15761
F         14.64643        4.36409       13.81805
C         11.88364        0.43827       18.40304
C         13.11226        0.54800       19.12449
N         14.08653        0.59869       19.76588
O          9.84371        2.01689       14.25761
C          6.69721        0.08660       18.71028
C          4.87162        1.15566       12.02342
C          3.31190       -0.52715        9.79404
C         -3.14696       -0.30583        7.06701
O          1.92165        0.67073        4.45467
C         -2.02274       -0.86594        2.02323
C         -2.54226       -0.89362        0.69220
N         -3.02701       -0.94524       -0.36870
F          3.31980        2.14717       -0.51319
F          1.09753        1.46998       -1.88875
C         11.03125       -0.56458       18.96079
N         10.40696       -1.41774       19.45636
C         -2.80363       -1.66953        2.91077
N         -3.47322       -2.36776        3.56450
H         14.37680        2.18059       17.73503
H         12.19370        3.48902       13.42611
H          9.10719        0.46170       18.02175
H          7.26189       -0.80854       18.97913
H          5.68985       -0.02785       19.10957
H          7.15320        0.94045       19.21598
H          5.31666        2.00695       12.53665
H          4.18008        1.54635       11.28380
H          5.65505        0.57830       11.53454
H          3.05742       -1.32316        9.09566
H          4.01821       -0.93277       10.51168
H          3.76571        0.29954        9.24965
H         -3.42252       -1.25565        6.60439
H         -3.48141        0.50071        6.41097
H         -3.70369       -0.22024        7.99958
H         -2.05892       -0.41040        4.78243
H          3.25582        1.64625        2.07034
H         -0.81746        0.39537       -0.55523

  eps=3.36
  epsinf=3.36
  RSolv=7.28

