%mem=1000MW
%nprocshared=40
#p wB97XD/6-31g** nosymm pop=esp opt td=(triplet,nstates=3,root=2) scf=(MaxCycle=20000) iop(3/107=0016000000,3/108=0016000000) SCRF=(PCM,Solvent=Generic,Read)

 Y6 opt-TDdft

0 1
C          0.07483        0.57720        0.04302
C          0.12742        0.40089        1.43031
C          1.26059        0.84549        2.13685
C          2.34916        1.44759        1.51554
C          2.28510        1.62093        0.13714
C          1.15817        1.19336       -0.58059
C         -0.81910       -0.22470        2.39071
C         -0.29029       -0.02779        3.72636
C          1.07572        0.56344        3.58224
C         -1.00969       -0.18993        4.91549
C         -0.68093       -0.11571        6.28817
S          0.95432       -0.00310        6.97728
C          0.31206       -0.13675        8.58963
C         -1.09830       -0.21377        8.58323
C         -1.68158       -0.20263        7.31413
S         -1.79799       -0.27587       10.21306
C         -0.18630       -0.18867       10.88224
C          0.82123       -0.11465        9.90167
N          2.06341       -0.07340       10.51323
C          1.84362       -0.08499       11.88803
C          0.44393       -0.20067       12.14077
C          2.75843        0.01674       12.98488
C          2.31123       -0.27294       14.30900
C          0.91576       -0.49631       14.56915
C         -0.03630       -0.39100       13.48182
N          4.10823        0.35575       13.01942
C          4.52795        0.22594       14.33303
C          3.44191       -0.16440       15.13975
C          5.71885        0.39840       15.06357
C          5.52545        0.13753       16.43798
S          3.85899       -0.33309       16.82824
C          6.66761        0.28139       17.22901
C          7.80172        0.66088       16.43407
S          7.36214        0.85936       14.72244
N         -1.30054       -0.55015       13.85866
S         -1.27670       -0.82109       15.49160
N          0.35618       -0.73743       15.75007
C          9.09874        0.77101       16.98665
C         10.33810        1.20038       16.49846
C         11.59263        1.15938       17.22587
C         12.57035        2.00787       16.49459
C         11.97680        2.45641       15.30040
C         10.58702        1.94276       15.22419
C         12.64681        3.24742       14.37371
C         13.95704        3.60835       14.66797
C         14.56207        3.17545       15.85711
C         13.89122        2.37355       16.77852
F         15.82620        3.54935       16.10873
F         14.65905        4.37725       13.81940
C         11.88980        0.39769       18.36612
C         13.11733        0.49370       19.08864
N         14.09150        0.53469       19.73128
O          9.80998        2.11879       14.29606
C          6.70792        0.06905       18.72099
C          4.83604        1.18454       12.04705
C          3.28869       -0.48832        9.81264
C         -3.16491       -0.27042        7.05256
O          1.88829        0.79541        4.46657
C         -1.96379       -0.95198        2.03203
C         -2.48531       -1.00830        0.70433
N         -2.96987       -1.08207       -0.35557
F          3.29916        2.20251       -0.52445
F          1.12975        1.38570       -1.90843
C         11.03926       -0.61740       18.90104
N         10.41743       -1.48325       19.37771
C         -2.70015       -1.78562        2.92824
N         -3.32954       -2.51204        3.59133
H         14.41845        2.07830       17.67182
H         12.17694        3.57655       13.45668
H          9.11126        0.46459       18.02435
H          7.27732       -0.82699       18.97782
H          5.70360       -0.05187       19.12585
H          7.16584        0.91939       19.23137
H          5.27248        2.03784       12.56424
H          4.14049        1.57260       11.30989
H          5.62576        0.61853       11.55471
H          3.04284       -1.28767        9.11506
H          3.99853       -0.88641       10.53087
H          3.73492        0.34202        9.26728
H         -3.44022       -1.21504        6.57841
H         -3.49229        0.54307        6.40093
H         -3.72774       -0.19263        7.98206
H         -2.06229       -0.39646        4.77287
H          3.21733        1.77446        2.07201
H         -0.75810        0.27217       -0.57093

  eps=3.36
  epsinf=3.36
  RSolv=7.28

