%mem=1000MW
%nprocshared=40
#p wB97XD/6-31g** nosymm pop=esp opt td=(nstates=2,root=1) scf=(MaxCycle=20000) iop(3/107=0016000000,3/108=0016000000) SCRF=(PCM,Solvent=Generic,Read)

 Y6 opt-TDdft

0 1
C          0.28556        1.01461        0.23651
C          0.32526        0.67580        1.59498
C          1.51774        0.85426        2.32046
C          2.68530        1.33855        1.73686
C          2.63712        1.66600        0.38808
C          1.44674        1.51176       -0.34495
C         -0.70028        0.09960        2.49925
C         -0.14724        0.13837        3.86347
C          1.30112        0.47624        3.74014
C         -0.89530        0.07746        5.01862
C         -0.58412        0.09889        6.41322
S          1.03318       -0.08028        7.11890
C          0.35921       -0.09368        8.71249
C         -1.03781        0.07313        8.69226
C         -1.59279        0.18486        7.40529
S         -1.76833        0.11552       10.30616
C         -0.17884       -0.08763       10.99976
C          0.84782       -0.17370       10.03596
N          2.06316       -0.35523       10.65958
C          1.82366       -0.35747       12.03424
C          0.41038       -0.23648       12.25969
C          2.70837       -0.41777       13.13795
C          2.18494       -0.64880       14.46263
C          0.76312       -0.64045       14.69052
C         -0.12810       -0.36163       13.58846
N          4.09577       -0.31126       13.21097
C          4.45402       -0.53779       14.52490
C          3.28460       -0.75421       15.30798
C          5.62747       -0.56918       15.28244
C          5.35596       -0.81673       16.64913
S          3.63004       -1.01410       16.99947
C          6.48968       -0.86625       17.48288
C          7.65588       -0.63256       16.74131
S          7.34228       -0.40760       15.01985
N         -1.40879       -0.30969       13.93369
S         -1.47165       -0.60547       15.56091
N          0.14536       -0.80313       15.85359
C          9.04809       -0.68160       17.20749
C          9.77848        0.39191       17.66228
C         11.14286        0.45955       18.13161
C         11.42013        1.86364       18.49542
C         10.26755        2.65271       18.27440
C          9.19287        1.77946       17.75066
C         10.21855        4.01785       18.52436
C         11.36951        4.62790       19.01631
C         12.52226        3.86636       19.24027
C         12.57190        2.49486       18.98951
F         13.62143        4.48458       19.71417
F         11.38518        5.95324       19.27912
C         12.07056       -0.61707       18.23791
C         13.39626       -0.47888       18.72895
N         14.49762       -0.42656       19.12516
O          8.05608        2.11873       17.45056
C          6.46569       -1.10887       18.96971
C          4.97618        0.40798       12.27458
C          3.22685       -0.92539        9.96235
C         -3.06820        0.36830        7.14035
O          2.14948        0.47812        4.62030
C         -1.88861       -0.48034        2.09671
C         -2.36505       -0.46615        0.74511
N         -2.81119       -0.48165       -0.33144
F          3.72297        2.14195       -0.23457
F          1.44148        1.85791       -1.63891
C         11.77720       -1.95789       17.87344
N         11.59094       -3.07949       17.58793
C         -2.74591       -1.23544        2.96298
N         -3.47214       -1.88816        3.59927
H         13.49776        1.97689       19.18489
H          9.32131        4.59609       18.34665
H          9.50071       -1.66357       17.15314
H          7.47668       -1.19114       19.36500
H          5.92929       -2.03152       19.20563
H          5.96533       -0.28456       19.48516
H          5.57761        1.11892       12.83797
H          4.36995        0.97516       11.57518
H          5.63239       -0.27602       11.73957
H          2.87719       -1.64659        9.22547
H          3.84566       -1.46334       10.67293
H          3.80877       -0.15077        9.46539
H         -3.25204        1.13827        6.38995
H         -3.58832        0.67224        8.04820
H         -3.52257       -0.56317        6.79593
H         -1.96494        0.02444        4.86024
H          3.59981        1.46224        2.30083
H         -0.59600        0.92822       -0.37905

  eps=3.36
  epsinf=3.36
  RSolv=7.28
 
