%mem=1000MW
%nprocshared=40
#p wB97XD/6-31g** nosymm pop=esp opt td=(triplet,nstates=2,root=1) scf=(MaxCycle=20000) iop(3/107=0016000000,3/108=0016000000) SCRF=(PCM,Solvent=Generic,Read)

 Y6 opt-TDdft

0 1
C          0.29652        1.02771        0.24320
C          0.33470        0.68577        1.60093
C          1.52588        0.86406        2.32861
C          2.69371        1.35115        1.74784
C          2.64706        1.68166        0.39977
C          1.45790        1.52768       -0.33539
C         -0.69141        0.10602        2.50216
C         -0.14056        0.14250        3.86745
C          1.30771        0.48231        3.74701
C         -0.89025        0.07838        5.02125
C         -0.58094        0.09742        6.41645
S          1.03554       -0.08138        7.12374
C          0.35952       -0.09806        8.71650
C         -1.03772        0.06743        8.69473
C         -1.59112        0.18061        7.40727
S         -1.77047        0.10694       10.30773
C         -0.18170       -0.09556       11.00309
C          0.84649       -0.17942       10.04027
N          2.06116       -0.36052       10.66516
C          1.81999       -0.36448       12.03960
C          0.40588       -0.24524       12.26332
C          2.70306       -0.42451       13.14406
C          2.17807       -0.65700       14.46823
C          0.75588       -0.65029       14.69428
C         -0.13421       -0.37189       13.59131
N          4.09050       -0.31724       13.21930
C          4.44689       -0.54472       14.53330
C          3.27652       -0.76264       15.31471
C          5.61958       -0.57635       15.29241
C          5.34631       -0.82438       16.65832
S          3.62025       -1.02343       17.00662
C          6.47936       -0.87160       17.49413
C          7.64510       -0.63641       16.75419
S          7.33451       -0.41368       15.03227
N         -1.41538       -0.32160       13.93488
S         -1.48001       -0.61842       15.56187
N          0.13685       -0.81436       15.85645
C          9.03782       -0.68397       17.22300
C          9.77318        0.39261       17.65883
C         11.13942        0.46136       18.12527
C         11.42054        1.86728       18.47424
C         10.27062        2.65857       18.24495
C          9.19246        1.78431       17.73178
C         10.22664        4.02659       18.48067
C         11.37955        4.63772       18.96602
C         12.52972        3.87414       19.19809
C         12.57472        2.50025       18.96181
F         13.63094        4.49363       19.66568
F         11.40015        5.96579       19.21509
C         12.06482       -0.61731       18.23897
C         13.39076       -0.47887       18.72883
N         14.49237       -0.42617       19.12455
O          8.05644        2.12411       17.42961
C          6.45334       -1.11264       18.98130
C          4.97210        0.40274       12.28456
C          3.22620       -0.92910        9.96884
C         -3.06635        0.36285        7.14053
O          2.15471        0.48279        4.62844
C         -1.87810       -0.47496        2.09652
C         -2.35222       -0.45886        0.74411
N         -2.79643       -0.47295       -0.33325
F          3.73322        2.16034       -0.22020
F          1.45411        1.87687       -1.62850
C         11.76926       -1.95947       17.88204
N         11.58108       -3.08240       17.60274
C         -2.73562       -1.23313        2.95990
N         -3.46184       -1.88822        3.59375
H         13.49868        1.98116       19.16308
H          9.33139        4.60605       18.29696
H          9.48472       -1.66942       17.18837
H          7.46391       -1.18652       19.37936
H          5.92372       -2.03927       19.21702
H          5.94529       -0.29174       19.49473
H          5.57315        1.11286       12.84934
H          4.36676        0.97083       11.58513
H          5.62869       -0.28091       11.74956
H          2.87802       -1.64989        9.23086
H          3.84447       -1.46722       10.67975
H          3.80812       -0.15351        9.47341
H         -3.24996        1.13431        6.39161
H         -3.58827        0.66400        8.04827
H         -3.51899       -0.56839        6.79323
H         -1.95960        0.02444        4.86129
H          3.60726        1.47463        2.31340
H         -0.58405        0.94158       -0.37383

  eps=3.36
  epsinf=3.36
  RSolv=7.28
 
