%mem=1000MW
%nprocshared=40
#p wB97XD/6-31g** nosymm pop=esp opt td=(nstates=2,root=1) scf=(MaxCycle=20000) iop(3/107=0016000000,3/108=0016000000) SCRF=(PCM,Solvent=Generic,Read)

 Y6 opt-TDdft

0 1
C         13.87116        2.43358       16.96028
C         12.58120        2.02953       16.60066
C         11.97699        2.58643       15.45972
C         12.61372        3.52206       14.65199
C         13.89612        3.91751       15.01787
C         14.50776        3.38029       16.16028
C         10.60927        2.02364       15.30419
C         10.38233        1.13759       16.47870
C         11.64143        1.04322       17.20162
C          9.15741        0.63584       16.92905
C          7.85664        0.57014       16.38446
C          6.73093        0.11106       17.15429
C          5.58646        0.03900       16.37053
C          5.75883        0.42611       15.01517
S          7.40027        0.92596       14.70357
S          3.92383       -0.47070       16.74277
C          3.48253       -0.15294       15.08166
C          4.57169        0.31499       14.29034
C          2.35337       -0.19567       14.27522
C          2.77665        0.20671       12.95070
N          4.13442        0.55397       13.00000
C          0.96581       -0.48335       14.53370
C          0.00145       -0.34921       13.46376
C          0.46157       -0.05058       12.13136
C          1.87404        0.14244       11.87800
C         -0.17755        0.04352       10.90243
C          0.81898        0.23750        9.90195
N          2.06635        0.28055       10.49628
C          0.28996        0.28741        8.61206
C         -1.12311        0.15086        8.61693
S         -1.79671       -0.05532       10.25037
C         -1.72591        0.21071        7.36731
C         -0.74625        0.39430        6.32841
S          0.89652        0.53545        6.99540
N         -1.25030       -0.58156       13.83658
S         -1.20298       -0.95500       15.45125
N          0.43096       -0.82141       15.69977
C         -1.10095        0.39272        4.96233
C         -0.41096        0.63316        3.76953
C         -0.97767        0.52156        2.43411
C         -0.03985        1.18954        1.48886
C          1.11504        1.56874        2.19529
C          0.95208        1.21253        3.62893
C          2.20222        2.18581        1.58663
C          2.11268        2.44071        0.22232
C          0.96195        2.08087       -0.49451
C         -0.11994        1.45045        0.11663
F          3.12525        3.03837       -0.42614
F          0.90867        2.35399       -1.80766
C         -2.13502       -0.15807        2.05249
C         -2.90005       -1.00475        2.91447
N         -3.55899       -1.73722        3.54001
O          1.78872        1.39377        4.50486
C         -3.21024        0.09353        7.12547
C          3.29203       -0.05301        9.75388
C          4.81401        1.51383       12.11493
C          6.79166       -0.24439       18.61924
C         11.97639        0.13645       18.20691
C         11.15684       -0.96820       18.60047
N         10.56316       -1.90912       18.95254
O          9.83662        2.27668       14.38866
F         14.56348        4.82267       14.28426
F         15.74155        3.79578       16.48691
C         13.22031        0.14972       18.91174
N         14.20871        0.11245       19.53114
C         -2.66419       -0.14700        0.72431
N         -3.15790       -0.17021       -0.33298
H         14.39721        2.06500       17.82672
H         12.13958        3.93575       13.77214
H          9.18696        0.22208       17.92855
H          7.34987       -1.16940       18.77860
H          5.79181       -0.38916       19.02771
H          7.26979        0.54652       19.20113
H          5.20572        2.33688       12.71197
H          4.09609        1.92963       11.41498
H          5.63021        1.03981       11.57111
H          3.06287       -0.81639        9.01124
H          4.02535       -0.46950       10.43735
H          3.70459        0.82352        9.25608
H         -3.45466       -0.84180        6.61792
H         -3.58156        0.91904        6.51416
H         -3.76049        0.11121        8.06576
H         -2.15287        0.17517        4.83053
H          3.08838        2.46266        2.14194
H         -0.97256        1.20023       -0.49485

  eps=3.36
  epsinf=3.36
  RSolv=7.28


