%mem=1000MW
%nprocshared=40
#p wB97XD/6-31g** nosymm pop=esp opt td=(triplet,nstates=2,root=1) scf=(MaxCycle=20000) iop(3/107=0016000000,3/108=0016000000) SCRF=(PCM,Solvent=Generic,Read)

 Y6 opt-TDdft

0 1
C         13.87106        2.43388       16.96071
C         12.58122        2.02966       16.60086
C         11.97716        2.58639       15.45976
C         12.61395        3.52204       14.65208
C         13.89624        3.91765       15.01818
C         14.50772        3.38060       16.16076
C         10.60953        2.02345       15.30402
C         10.38246        1.13750       16.47859
C         11.64144        1.04332       17.20174
C          9.15753        0.63570       16.92881
C          7.85676        0.56998       16.38419
C          6.73103        0.11104       17.15409
C          5.58654        0.03902       16.37038
C          5.75888        0.42606       15.01500
S          7.40033        0.92580       14.70332
S          3.92388       -0.47058       16.74269
C          3.48256       -0.15292       15.08159
C          4.57171        0.31494       14.29021
C          2.35338       -0.19566       14.27516
C          2.77666        0.20660       12.95060
N          4.13442        0.55386       12.99986
C          0.96582       -0.48327       14.53368
C          0.00145       -0.34915       13.46374
C          0.46156       -0.05062       12.13132
C          1.87404        0.14231       11.87792
C         -0.17758        0.04345       10.90240
C          0.81894        0.23732        9.90189
N          2.06632        0.28034       10.49620
C          0.28991        0.28718        8.61201
C         -1.12316        0.15070        8.61690
S         -1.79675       -0.05535       10.25037
C         -1.72598        0.21054        7.36728
C         -0.74632        0.39401        6.32837
S          0.89647        0.53507        6.99533
N         -1.25031       -0.58135       13.83663
S         -1.20297       -0.95488       15.45127
N          0.43096       -0.82117       15.69978
C         -1.10106        0.39253        4.96231
C         -0.41109        0.63302        3.76952
C         -0.97787        0.52173        2.43412
C         -0.03990        1.18958        1.48891
C          1.11509        1.56845        2.19538
C          0.95207        1.21213        3.62899
C          2.20239        2.18535        1.58677
C          2.11288        2.44042        0.22249
C          0.96206        2.08092       -0.49436
C         -0.11996        1.45068        0.11671
F          3.12557        3.03794       -0.42593
F          0.90880        2.35423       -1.80747
C         -2.13539       -0.15756        2.05243
C         -2.90069       -1.00405        2.91435
N         -3.55989       -1.73628        3.53991
O          1.78874        1.39312        4.50495
C         -3.21031        0.09345        7.12545
C          3.29196       -0.05334        9.75379
C          4.81402        1.51363       12.11472
C          6.79182       -0.24429       18.61906
C         11.97640        0.13663       18.20712
C         11.15702       -0.96818       18.60053
N         10.56346       -1.90919       18.95256
O          9.83700        2.27638       14.38838
F         14.56364        4.82283       14.28463
F         15.74140        3.79625       16.48758
C         13.22024        0.15014       18.91209
N         14.20863        0.11316       19.53152
C         -2.66457       -0.14624        0.72425
N         -3.15820       -0.16921       -0.33310
H         14.39697        2.06542       17.82729
H         12.13993        3.93560       13.77211
H          9.18704        0.22199       17.92833
H          7.35005       -1.16928       18.77845
H          5.79200       -0.38904       19.02758
H          7.26997        0.54667       19.20087
H          5.20578        2.33670       12.71170
H          4.09610        1.92942       11.41475
H          5.63020        1.03956       11.57090
H          3.06272       -0.81670        9.01115
H          4.02527       -0.46991       10.43722
H          3.70461        0.82314        9.25596
H         -3.45476       -0.84188        6.61791
H         -3.58159        0.91897        6.51413
H         -3.76058        0.11115        8.06572
H         -2.15301        0.17509        4.83050
H          3.08862        2.46194        2.14210
H         -0.97266        1.20073       -0.49477

  eps=3.36
  epsinf=3.36
  RSolv=7.28


