%mem=800MW
%nprocshared=32
%chk=IT-4Cl-HSO-scan-150-S1fromT1.chk
%rwf=IT-4Cl-HSO-scan-150-S1fromT1.rwf
#p wB97XD/6-31g** td(50-50,nstates=5) 6D 10F nosymm GFInput scf=(MaxCycle=20000) iop(3/107=0001100000,3/108=0001100000) SCRF=(PCM,Solvent=Generic,Read)

 HSO

0 1
C              -0.0159900000     -0.2925100000     -0.2066400000
C              -0.0045600000     -0.1521400000      1.1886800000
C               1.2451200000     -0.0962000000      1.8279900000
C               2.4320600000     -0.1577900000      1.0953800000
C               2.4239700000     -0.2844300000     -0.3038800000
C               1.1740600000     -0.3535600000     -0.9368700000
C              -1.3223100000     -0.1901900000      2.0066800000
C              -2.5579000000      0.1908700000      1.1789400000
C              -3.4275100000     -0.9240100000      1.0482800000
C              -2.9015700000     -2.0639400000      1.6918700000
C              -1.6495600000     -1.6792100000      2.2966900000
S              -4.8904300000     -0.5836800000      0.1406900000
C              -4.3408600000      1.0794600000     -0.0760500000
C              -3.0777800000      1.3169000000      0.5548800000
C              -4.8918400000      2.1690200000     -0.7252600000
C              -4.0706000000      3.3231600000     -0.6246400000
S              -2.5931800000      2.9771800000      0.3188300000
C              -0.8973000000     -2.5939400000      2.9910600000
C              -1.3924000000     -3.9230500000      3.0968300000
C              -2.6478600000     -4.3066100000      2.5003700000
C              -3.3980800000     -3.3935100000      1.8013300000
C              -0.8536200000     -5.0707000000      3.7202100000
C              -1.6891500000     -6.1989400000      3.5373900000
C              -2.9460600000     -5.8099700000      2.7459300000
S               0.5973600000     -5.3984400000      4.6495300000
C               0.0882900000     -7.0809800000      4.7977300000
C              -1.1592400000     -7.3315100000      4.1515300000
S              -1.6227700000     -9.0096400000      4.3186600000
C              -0.1509300000     -9.3611200000      5.2532600000
C               0.6470400000     -8.1905600000      5.4038100000
C              -4.2604900000      4.6507800000     -1.0626500000
C              -5.1595100000      5.2044700000     -1.9851200000
C              -5.8699700000      4.4881200000     -3.0889100000
C              -6.3533300000      5.5494600000     -4.0203500000
C              -6.0345400000      6.8151800000     -3.4996400000
C              -5.3570800000      6.6301400000     -2.1849000000
C              -7.0077700000      5.3865300000     -5.2316500000
C              -7.3537400000      6.5306500000     -5.9637600000
C              -7.0375300000      7.8070700000     -5.4571900000
C              -6.3822200000      7.9560100000     -4.2239500000
Cl             -8.1683500000      6.3260700000     -7.4984300000
Cl             -7.4451500000      9.2603400000     -6.3430000000
O              -6.0095800000      3.2847000000     -3.2595900000
C              -5.0665000000      7.6503100000     -1.2768100000
C              -5.2250600000      9.0437700000     -1.5597400000
N              -5.3190100000     10.1953900000     -1.7260500000
C              -1.3116900000      0.6929100000      3.2830600000
C              -0.6611700000      1.9381200000      3.2937900000
C              -0.7193900000      2.7726700000      4.4111900000
C              -1.4352300000      2.4049200000      5.5627600000
C              -2.0953200000      1.1672400000      5.5431800000
C              -2.0391900000      0.3290500000      4.4258500000
C              -3.0465400000     -6.5091400000      1.3657200000
C              -4.2675600000     -6.5735600000      0.6751300000
C              -4.3440300000     -7.1278100000     -0.6044100000
C              -3.2056600000     -7.6367900000     -1.2503300000
C              -1.9845300000     -7.5556900000     -0.5635700000
C              -1.9042000000     -6.9998000000      0.7159100000
C              -4.1749900000     -6.0402600000      3.6681200000
C              -4.8327900000     -7.2815000000      3.6986200000
C              -5.8811500000     -7.5206800000      4.5884300000
C              -6.3153800000     -6.5357600000      5.4911100000
C              -5.6498800000     -5.3012500000      5.4649900000
C              -4.5991200000     -5.0584800000      4.5755500000
C               0.2629700000    -10.5831100000      5.8340500000
C              -0.2459000000    -11.8819600000      5.8654000000
C              -1.4283800000    -12.3873700000      5.1176500000
C              -1.4381700000    -13.8652400000      5.2917300000
C              -0.3676600000    -14.2431800000      6.1195900000
C               0.3556500000    -13.0143500000      6.5626200000
C              -0.1641700000    -15.5990200000      6.3844000000
C              -1.0396500000    -16.5432800000      5.8248700000
C              -2.1180200000    -16.1441000000      5.0096500000
C              -2.3178400000    -14.7841900000      4.7399900000
C              -3.2979200000     -8.2760200000     -2.6247200000
C              -7.4677400000     -6.8020100000      6.4434500000
O              -2.2398100000    -11.7421300000      4.4664200000
C               1.3629900000    -12.9964200000      7.5275900000
C               1.9059500000    -14.1698700000      8.1422400000
N               2.4028700000    -15.0767300000      8.6835100000
Cl             -0.7443900000    -18.2326900000      6.1729400000
Cl             -3.2239000000    -17.3061300000      4.3126200000
C              -1.4706300000      3.3080100000      6.7829200000
C               3.7183700000     -0.3185300000     -1.0970400000
C               1.9530500000    -11.8111300000      8.0737900000
N               2.4712000000    -10.8965600000      8.5815000000
C              -4.6427700000      7.4290600000      0.0737200000
N              -4.3240700000      7.3336200000      1.1926300000
H              -7.2428900000      4.4002200000     -5.6075400000
H              -6.1588000000      8.9530400000     -3.8807800000
H              -3.5641600000      5.3577000000     -0.6281200000
H              -5.8338200000      2.1758400000     -1.2457400000
H               0.0442200000     -2.3226400000      3.4464500000
H              -4.3377900000     -3.6654900000      1.3425200000
H               1.5828900000     -8.1960600000      5.9438200000
H               1.2039900000    -10.4517300000      6.3500800000
H               0.6465300000    -15.9566800000      6.9975100000
H              -3.1368600000    -14.4603500000      4.1124600000
H              -2.5727400000     -0.6122100000      4.4583700000
H               3.3775100000     -0.1048600000      1.6260100000
H               1.3046500000      0.0030500000      2.9045700000
H               1.1191100000     -0.4592000000     -2.0156000000
H              -0.9551300000     -0.3626000000     -0.7407900000
H              -2.6650400000      0.8454900000      6.4091400000
H              -0.1999300000      3.7250400000      4.3802000000
H              -0.0929000000      2.2633300000      2.4320600000
H              -5.1735800000     -6.1980000000      1.1337400000
H              -5.3082400000     -7.1646700000     -1.1014100000
H              -0.9365300000     -6.9489800000      1.1990400000
H              -1.0782500000     -7.9309900000     -1.0281000000
H              -4.1120100000     -4.0923600000      4.6041700000
H              -5.9483200000     -4.5130000000      6.1487800000
H              -6.3642800000     -8.4924500000      4.5768300000
H              -4.5389200000     -8.0711500000      3.0196500000
H              -1.6684700000      4.3463900000      6.5034000000
H              -2.2403000000      2.9971100000      7.4918300000
H              -0.5091500000      3.2900200000      7.3075600000
H               3.5763400000     -0.7764700000     -2.0781200000
H               4.1027700000      0.6949200000     -1.2577000000
H               4.4941700000     -0.8805500000     -0.5706900000
H              -7.3539500000     -7.7693800000      6.9404500000
H              -7.5385500000     -6.0326900000      7.2146900000
H              -8.4221200000     -6.8229500000      5.9061800000
H              -4.1085200000     -7.8429200000     -3.2151100000
H              -2.3678600000     -8.1548200000     -3.1847500000
H              -3.4914200000     -9.3511000000     -2.5381800000

  eps=4.88617
  epsinf=4.88617
  RSolv=8.36
 
