%mem=800MW
%nprocshared=32
%chk=Y6-HSO-scan-140-S1fromT2.chk
%rwf=Y6-HSO-scan-140-S1fromT2.rwf
#p wB97XD/6-31g** td(50-50,nstates=5) 6D 10F nosymm GFInput scf=(MaxCycle=20000) iop(3/107=0016000000,3/108=0016000000) SCRF=(PCM,Solvent=Generic,Read)

 HSO

0 1
C              -0.0934200000      0.3018200000     -0.0221900000
C              -0.0169100000      0.1702300000      1.3687800000
C               1.1843100000      0.4964500000      2.0254000000
C               2.3176800000      0.9353900000      1.3499900000
C               2.2302100000      1.0645400000     -0.0321600000
C               1.0367900000      0.7539200000     -0.7006000000
C              -1.0015400000     -0.2980600000      2.3788000000
C              -0.4138300000     -0.1064300000      3.6913600000
C               1.0112800000      0.2958900000      3.4859400000
C              -1.1135300000     -0.1247000000      4.9019200000
C              -0.7434600000     -0.0178200000      6.2626400000
S               0.9101100000     -0.0554200000      6.9138600000
C               0.2965200000     -0.0314300000      8.5440600000
C              -1.1136900000      0.0507800000      8.5662600000
C              -1.7223000000      0.0642100000      7.3096400000
S              -1.7791800000      0.1411500000     10.2093000000
C              -0.1534200000      0.0717600000     10.8455100000
C               0.8349500000     -0.0078900000      9.8435200000
N               2.0868000000     -0.0797800000     10.4312200000
C               1.8967800000     -0.0133100000     11.8093400000
C               0.4981100000      0.0372700000     12.0911100000
C               2.8401200000      0.0285700000     12.8834600000
C               2.3959600000     -0.1671800000     14.2250900000
C               0.9908800000     -0.2263600000     14.5197400000
C               0.0312600000     -0.0517100000     13.4478300000
N               4.2191200000      0.2222100000     12.8781700000
C               4.6525000000      0.0916000000     14.1871600000
C               3.5524200000     -0.1569100000     15.0280700000
C               5.8701500000      0.1676700000     14.8927300000
C               5.6820000000     -0.0300200000     16.2765800000
S               3.9900300000     -0.3168600000     16.7117100000
C               6.8507100000      0.0033900000     17.0589100000
C               7.9812600000      0.2809300000     16.2486500000
S               7.5517000000      0.3992600000     14.5210500000
N              -1.2335800000     -0.0551400000     13.8544400000
S              -1.2022900000     -0.2725500000     15.4950600000
N               0.4350700000     -0.3643300000     15.7190100000
C               9.3609200000      0.3724100000     16.5703900000
C               9.9510400000      0.8882900000     17.7255300000
C              11.3253800000      0.7259300000     18.1432100000
C              11.5999000000      1.7221400000     19.2099700000
C              10.4188900000      2.4407800000     19.4768600000
C               9.3348500000      1.9652700000     18.5778600000
C              10.3450100000      3.4379000000     20.4427100000
C              11.5002300000      3.7208200000     21.1633000000
C              12.6858900000      3.0150800000     20.9093500000
C              12.7564800000      2.0133500000     19.9427300000
F              13.7815600000      3.3186100000     21.6230900000
F              11.4955900000      4.6738200000     22.1097000000
C              12.2192300000     -0.2532500000     17.6844100000
C              13.5920100000     -0.3192900000     18.0686500000
N              14.7244200000     -0.4153600000     18.3373000000
O               8.2071400000      2.4253800000     18.5042500000
C               6.8826400000     -0.3378800000     18.5237300000
C               4.9984300000      0.9538800000     11.8678200000
C               3.2467300000     -0.6498300000      9.7287900000
C              -3.2092200000      0.1595100000      7.0785900000
O               1.8757400000      0.4512500000      4.3374100000
C              -2.2318700000     -0.9011900000      2.0815700000
C              -2.7865300000     -0.9691200000      0.7676800000
N              -3.2985600000     -1.0454300000     -0.2790200000
F               3.2854700000      1.4930100000     -0.7442900000
F               0.9893100000      0.8984500000     -2.0340300000
C              11.8437000000     -1.3259100000     16.8181000000
N              11.5984300000     -2.2366800000     16.1294500000
C              -3.0396500000     -1.5926200000      3.0357100000
N              -3.7352500000     -2.2021200000      3.7485600000
H              13.7012500000      1.5130400000     19.7972900000
H               9.4277100000      3.9775500000     20.6364700000
H              10.0365600000      0.0475400000     15.7867700000
H               7.8898900000     -0.5903300000     18.8513200000
H               6.2389400000     -1.1979900000     18.7228600000
H               6.5293900000      0.4995900000     19.1284800000
H               5.5126200000      1.7846200000     12.3493800000
H               4.3258300000      1.3723800000     11.1260800000
H               5.7281800000      0.3055500000     11.3848700000
H               2.9066400000     -1.4545700000      9.0783800000
H               3.9325200000     -1.0802600000     10.4517300000
H               3.7592600000      0.1040300000      9.1327100000
H              -3.4562300000      0.9929500000      6.4163400000
H              -3.7395300000      0.3181700000      8.0168900000
H              -3.6014900000     -0.7556700000      6.6302300000
H              -2.1857800000     -0.2190500000      4.7920800000
H               3.2371300000      1.1725500000      1.8682800000
H              -0.9789400000      0.0825500000     -0.5976700000

  eps=3.36
  epsinf=3.36
  RSolv=7.28
 
