%mem=1000MW
%nprocshared=40
#p wB97XD/6-31g** opt td=(nstates=2,root=1) scf=(MaxCycle=20000) iop(3/107=0016000000,3/108=0016000000) nosymm pop=esp SCRF=(PCM,Solvent=Generic,Read)

 Y6

0 1
C        -10.50762       -8.62537        0.40584
C        -10.79666       -7.28858        0.18802
C         -9.72751       -6.39201        0.13645
C         -8.42558       -6.86968        0.30279
C         -8.13189       -8.20557        0.52072
C         -9.19670       -9.08558        0.57079
C         -9.67710       -4.92070       -0.07689
C         -7.46476       -5.74751        0.20731
C         -8.26396       -4.52586       -0.02223
F        -11.49588       -9.51402        0.46227
F         -8.99979      -10.38466        0.77565
O         -6.25514       -5.84502        0.30603
C        -10.77699       -4.12996       -0.29057
C        -10.71764       -2.71709       -0.50612
C        -12.11345       -4.64044       -0.32501
N        -13.20787       -5.02425       -0.35782
N        -10.69756       -1.56981       -0.68311
H        -11.83302       -7.00448        0.06787
H         -7.11164       -8.54881        0.64689
C         -7.77760       -3.25108       -0.14565
C         -6.48326       -2.66955       -0.13344
H         -8.53069       -2.48595       -0.28687
S         -4.92781       -3.49249        0.04160
C         -4.10441       -1.98954       -0.08793
C         -6.33006       -1.28123       -0.28761
C         -4.97671       -0.91353       -0.25473
C         -7.45445       -0.30248       -0.46747
H         -8.04941       -0.53014       -1.35650
H         -7.06748        0.71235       -0.57648
H         -8.13773       -0.31015        0.38649
S         -4.16035        0.63821       -0.40303
C         -2.63581       -0.17819       -0.23707
C         -2.75890       -1.55193       -0.08702
C         -1.26032        0.12916       -0.16605
C         -0.58597       -1.09669       -0.00886
N         -1.51247       -2.12205        0.06300
C         -0.53746        1.36504       -0.11442
C          0.88193        1.34316        0.13052
C          1.56380        0.08497        0.19740
C          0.84899       -1.11997        0.05816
C         -1.33481       -3.43820        0.65772
H         -2.16904       -3.63636        1.33396
H         -0.41857       -3.45206        1.24743
H         -1.29954       -4.22731       -0.09728
N         -1.04229        2.58267       -0.21165
N          1.42682        2.54458        0.21137
S          0.21003        3.62450       -0.00717
C          2.92933       -0.26586        0.26256
C          3.00643       -1.64424        0.12764
N          1.74151       -2.17571       -0.00689
C          1.51810       -3.49236       -0.58475
H          2.34607       -3.72890       -1.25622
H          0.60328       -3.48156       -1.17685
H          1.45345       -4.27014        0.18003
C          4.33824       -2.12361        0.11456
C          5.24400       -1.07562        0.25352
S          4.48259        0.50260        0.39818
S          5.11529       -3.65102       -0.00944
C          6.70150       -2.87297        0.12203
C          6.59048       -1.47919        0.26200
C          7.69897       -0.48028        0.41395
H          8.70228       -0.89615        0.32757
H          7.62251        0.00677        1.39162
H          7.59705        0.29957       -0.34743
C          7.96911       -3.51569        0.09709
C          8.38995       -4.81436       -0.02028
H          8.76238       -2.78792        0.19755
C          7.52934       -6.00850       -0.16107
C          9.78706       -5.27317       -0.02093
C          8.43353       -7.17730       -0.23683
C          9.76157       -6.75450       -0.15405
C          8.06883       -8.50682       -0.37014
C          9.08840       -9.43844       -0.41959
C         10.42555       -9.03407       -0.33707
C         10.78519       -7.70323       -0.20477
C         10.93322       -4.52707        0.07489
C         10.95448       -3.10216        0.19726
C         12.24478       -5.09933        0.06092
H          7.02883       -8.80505       -0.43403
H         11.83795       -7.46381       -0.14549
O          6.31396       -6.05850       -0.20805
F          8.82317      -10.73531       -0.54593
F         11.36842       -9.97082       -0.38845
N         11.00179       -1.94678        0.29751
N         13.32174       -5.53083        0.05311
                                                   
  eps=3.36                                       
  epsinf=3.36                                    
  RSolv=7.28
 
