%mem=800MW
%nprocshared=40
%chk=Y6-HSO-w-0016-T2deS1.chk
%rwf=Y6-HSO-w-0016-T2deS1.rwf
#p wB97XD/6-31g** td(50-50,nstates=5) 6D 10F nosymm GFInput scf=(MaxCycle=20000) iop(3/107=0016000000,3/108=0016000000) SCRF=(PCM,Solvent=Generic,Read)

 Y6

0 1
C             -10.8260600000     -8.4130600000      0.6454900000
C             -10.9569800000     -7.1656800000      0.0388800000
C              -9.8299400000     -6.3368800000     -0.0114400000
C              -8.6176000000     -6.7891300000      0.5431600000
C              -8.4811900000     -8.0374900000      1.1393500000
C              -9.6086900000     -8.8515400000      1.1874600000
C              -9.6142700000     -4.9880900000     -0.5945700000
C              -7.5800900000     -5.7374800000      0.3785400000
C              -8.2609300000     -4.5707600000     -0.2476000000
F             -11.8927300000     -9.2248900000      0.7171800000
F              -9.5470100000    -10.0663200000      1.7569300000
O              -6.4087700000     -5.8329300000      0.7233200000
C             -10.5260900000     -4.3129200000     -1.4084900000
C             -10.2102400000     -3.1470000000     -2.1732600000
C             -11.8665700000     -4.7514900000     -1.6381500000
N             -12.9747000000     -5.0480200000     -1.8556100000
N             -10.0187600000     -2.2157000000     -2.8509200000
H             -11.9221400000     -6.8915900000     -0.3570600000
H              -7.5409500000     -8.3739900000      1.5551700000
C              -7.7796700000     -3.2663500000     -0.3215400000
C              -6.5142000000     -2.6622500000     -0.1049800000
H              -8.5261100000     -2.5282700000     -0.5857500000
S              -4.9659000000     -3.5160900000      0.0810200000
C              -4.1055900000     -2.0050000000      0.0908800000
C              -6.3399100000     -1.2436800000     -0.1160100000
C              -4.9897100000     -0.9049400000     -0.0048900000
C              -7.4647400000     -0.2446600000     -0.2327500000
H              -7.9362100000     -0.2926300000     -1.2163000000
H              -7.0994200000      0.7721300000     -0.0926000000
H              -8.2340000000     -0.4229700000      0.5219900000
S              -4.1583500000      0.6652600000      0.0111400000
C              -2.6321200000     -0.1738100000      0.1498200000
C              -2.7704000000     -1.5865500000      0.1756500000
C              -1.2779100000      0.1243100000      0.2675800000
C              -0.5813100000     -1.1409300000      0.3099100000
N              -1.5254500000     -2.1728700000      0.2966600000
C              -0.5477900000      1.3570800000      0.4056300000
C               0.8841100000      1.3146100000      0.6047900000
C               1.5695800000      0.0509200000      0.5321000000
C               0.8257700000     -1.1663200000      0.2996700000
C              -1.3520800000     -3.5239800000      0.8538300000
H              -2.1241100000     -3.7009700000      1.6014400000
H              -0.3912500000     -3.5877700000      1.3548500000
H              -1.4192500000     -4.2852400000      0.0781400000
N              -1.0573800000      2.5822700000      0.4269200000
N               1.4373200000      2.5080800000      0.7804300000
S               0.2095600000      3.6175800000      0.6908900000
C               2.9143300000     -0.3059400000      0.5584400000
C               2.9996300000     -1.6983500000      0.2943400000
N               1.7314400000     -2.2163500000      0.1203400000
C               1.4903400000     -3.4664400000     -0.6161500000
H               2.2517600000     -3.5744300000     -1.3872000000
H               0.5269800000     -3.4112300000     -1.1136800000
H               1.5224200000     -4.3301800000      0.0464100000
C               4.3220300000     -2.1604500000      0.2309100000
C               5.2482200000     -1.1188700000      0.4689400000
S               4.4745900000      0.4541900000      0.7598000000
S               5.1245600000     -3.6859400000     -0.0006800000
C               6.7134900000     -2.9021000000      0.1569800000
C               6.5898100000     -1.5060600000      0.4383300000
C               7.7498400000     -0.5673200000      0.6624800000
H               8.2761700000     -0.3619500000     -0.2721300000
H               8.4677300000     -0.9790200000      1.3746100000
H               7.4055500000      0.3855900000      1.0638000000
C               7.9744400000     -3.5183800000     -0.0525200000
C               8.3978500000     -4.8315500000     -0.2410000000
H               8.7722500000     -2.7869100000     -0.0483500000
C               7.6001300000     -6.0676500000     -0.0148000000
C               9.7703900000     -5.2415700000     -0.5162100000
C               8.5661800000     -7.1966100000     -0.0082100000
C               9.8576900000     -6.7048000000     -0.2757700000
C               8.3042500000     -8.5425200000      0.2195600000
C               9.3832900000     -9.4202400000      0.1886700000
C              10.6788000000     -8.9450100000     -0.0650200000
C              10.9362000000     -7.5969200000     -0.3048300000
C              10.8082500000     -4.4511900000     -1.0142600000
C              10.6413700000     -3.1170200000     -1.4997600000
C              12.1524400000     -4.9093500000     -1.1742100000
H               7.3040300000     -8.9061400000      0.4132200000
H              11.9561900000     -7.3011800000     -0.4932500000
O               6.3916800000     -6.1653600000      0.1602200000
F               9.1986600000    -10.7329700000      0.4037400000
F              11.6957200000     -9.8213500000     -0.0769700000
N              10.5776800000     -2.0397700000     -1.9454600000
N              13.2698500000     -5.2166500000     -1.3161600000
                                                  
  eps=3.36                                       
  epsinf=3.36                                    
  RSolv=7.28
 
