%mem=800MW
%nprocshared=40
%chk=Y6-HSO-w-0016-S1deT2.chk
%rwf=Y6-HSO-w-0016-S1deT2.rwf
#p wB97XD/6-31g** td(50-50,nstates=5) 6D 10F nosymm GFInput scf=(MaxCycle=20000) iop(3/107=0016000000,3/108=0016000000) SCRF=(PCM,Solvent=Generic,Read)

 Y6

0 1
C             -10.7663200000     -8.4685200000      0.6054200000
C             -10.9051800000     -7.2218800000     -0.0019100000
C              -9.7970700000     -6.3673400000     -0.0114800000
C              -8.5944700000     -6.7961800000      0.5802700000
C              -8.4497600000     -8.0431900000      1.1782500000
C              -9.5591900000     -8.8818400000      1.1883200000
C              -9.5911100000     -5.0111700000     -0.5841400000
C              -7.5725200000     -5.7288500000      0.4380300000
C              -8.2581200000     -4.5734700000     -0.2200200000
F             -11.8155400000     -9.3048100000      0.6360600000
F              -9.4898000000    -10.0967800000      1.7569900000
O              -6.4098700000     -5.7969100000      0.8114200000
C             -10.5079100000     -4.3375700000     -1.4052200000
C             -10.1917500000     -3.1798300000     -2.1798900000
C             -11.8491000000     -4.7747000000     -1.6247300000
N             -12.9598100000     -5.0699100000     -1.8316000000
N             -10.0003000000     -2.2556200000     -2.8674500000
H             -11.8621500000     -6.9714000000     -0.4317800000
H              -7.5158600000     -8.3595700000      1.6230800000
C              -7.7839400000     -3.2590500000     -0.3007300000
C              -6.5247400000     -2.6510400000     -0.0951500000
H              -8.5373000000     -2.5285400000     -0.5652400000
S              -4.9710300000     -3.4929600000      0.1027400000
C              -4.1168400000     -1.9769400000      0.0846800000
C              -6.3526600000     -1.2261800000     -0.1262700000
C              -5.0026900000     -0.8822200000     -0.0261300000
C              -7.4827500000     -0.2358100000     -0.2499200000
H              -7.9560300000     -0.2955000000     -1.2323000000
H              -7.1231000000      0.7841800000     -0.1191400000
H              -8.2503100000     -0.4126000000      0.5072900000
S              -4.1709600000      0.6856000000     -0.0359600000
C              -2.6441100000     -0.1505700000      0.1118900000
C              -2.7776200000     -1.5512200000      0.1620300000
C              -1.2737600000      0.1512600000      0.2204300000
C              -0.5928800000     -1.1010000000      0.2864600000
N              -1.5270400000     -2.1331600000      0.2899300000
C              -0.5437200000      1.3809000000      0.3618500000
C               0.8850200000      1.3358200000      0.5988400000
C               1.5682100000      0.0725300000      0.5489400000
C               0.8386800000     -1.1303700000      0.3079400000
C              -1.3491600000     -3.4809800000      0.8516900000
H              -2.1194600000     -3.6560700000      1.6014700000
H              -0.3878300000     -3.5415100000      1.3520400000
H              -1.4167500000     -4.2462100000      0.0797700000
N              -1.0488800000      2.6098700000      0.3614700000
N               1.4363700000      2.5314100000      0.7783300000
S               0.2144400000      3.6405400000      0.6486900000
C               2.9277600000     -0.2895400000      0.5760900000
C               3.0068600000     -1.6693200000      0.3066600000
N               1.7328000000     -2.1812800000      0.1259200000
C               1.4886200000     -3.4320200000     -0.6072700000
H               2.2483800000     -3.5417600000     -1.3796600000
H               0.5246800000     -3.3775700000     -1.1035900000
H               1.5215300000     -4.2951000000      0.0562800000
C               4.3322700000     -2.1399300000      0.2462900000
C               5.2610500000     -1.1049000000      0.4922300000
S               4.4889900000      0.4663700000      0.7845400000
S               5.1259300000     -3.6727000000      0.0208400000
C               6.7203700000     -2.9016400000      0.1861200000
C               6.6007700000     -1.4996000000      0.4716800000
C               7.7666800000     -0.5729100000      0.7067700000
H               8.3025100000     -0.3701300000     -0.2234000000
H               8.4758600000     -0.9935000000      1.4228400000
H               7.4279000000      0.3821000000      1.1076000000
C               7.9743200000     -3.5209800000     -0.0186500000
C               8.3899600000     -4.8429800000     -0.2171200000
H               8.7790400000     -2.7975400000     -0.0048000000
C               7.5840800000     -6.0786200000      0.0304700000
C               9.7444600000     -5.2635500000     -0.5167000000
C               8.5390700000     -7.2143700000      0.0080000000
C               9.8255000000     -6.7311500000     -0.2949700000
C               8.2713000000     -8.5603300000      0.2312900000
C               9.3394800000     -9.4478300000      0.1584900000
C              10.6299800000     -8.9815100000     -0.1337300000
C              10.8927400000     -7.6331800000     -0.3689600000
C              10.7863700000     -4.4688800000     -1.0190000000
C              10.6155400000     -3.1393300000     -1.5119600000
C              12.1304200000     -4.9252200000     -1.1718800000
H               7.2739500000     -8.9160500000      0.4526500000
H              11.9088900000     -7.3464100000     -0.5895100000
O               6.3805800000     -6.1602500000      0.2331100000
F               9.1494100000    -10.7609700000      0.3679500000
F              11.6377900000     -9.8662500000     -0.1886800000
N              10.5477600000     -2.0652100000     -1.9649400000
N              13.2491200000     -5.2326000000     -1.3051300000
                                                   
  eps=3.36                                       
  epsinf=3.36                                    
  RSolv=7.28
 
