%mem=1000MW
%nprocshared=40
#p wB97XD/6-31g** nosymm pop=esp opt td=(triplet,nstates=2,root=1) scf=(MaxCycle=20000) iop(3/107=0001100000,3/108=0001100000) SCRF=(PCM,Solvent=Generic,Read)

 IT-4Cl opt-TDdft

0 1
C          0.49318       -0.28549       -0.01944
C          0.39311       -0.16907        1.37429
C          1.58504       -0.19369        2.11818
C          2.82462       -0.31718        1.48914
C          2.92922       -0.42632        0.09224
C          1.73674       -0.40768       -0.64625
C         -0.98602       -0.15128        2.08623
C         -2.13981        0.26525        1.16351
C         -3.01649       -0.82986        0.94514
C         -2.57491       -1.98509        1.62304
C         -1.38194       -1.62873        2.35179
S         -4.39523       -0.44738       -0.07049
C         -3.80334        1.20965       -0.20916
C         -2.58699        1.41106        0.51930
C         -4.28980        2.32406       -0.86749
C         -3.46271        3.46258       -0.67508
S         -2.05933        3.06712        0.35883
C         -0.73284       -2.55784        3.12658
C         -1.26306       -3.87666        3.17455
C         -2.44301       -4.23944        2.42942
C         -3.10129       -3.30686        1.66640
C         -0.82661       -5.03118        3.86157
C         -1.64107       -6.14995        3.56305
C         -2.77143       -5.74686        2.60523
S          0.47708       -5.37432        4.98378
C         -0.06793       -7.05043        5.05991
C         -1.21347       -7.28894        4.24201
S         -1.70613       -8.96483        4.33105
C         -0.39195       -9.32724        5.47265
C          0.38511       -8.16443        5.74160
C         -3.60263        4.80626       -1.08210
C         -4.45067        5.41538       -2.01823
C         -5.16181        4.75617       -3.15632
C         -5.59262        5.85918       -4.06415
C         -5.23853        7.09771       -3.50350
C         -4.59519        6.85277       -2.18111
C         -6.23480        5.75195       -5.28818
C         -6.53006        6.92689       -5.99284
C         -6.17481        8.17691       -5.44798
C         -5.53259        8.26926       -4.20233
Cl        -7.33312        6.79288       -7.54159
Cl        -6.51721        9.66757       -6.29884
O         -5.34008        3.56371       -3.36573
C         -4.29316        7.83887       -1.23943
C         -4.40048        9.24355       -1.48868
N         -4.45328       10.40173       -1.62491
C         -1.03680        0.73969        3.35489
C         -0.32295        1.94702        3.41840
C         -0.42687        2.78923        4.52758
C         -1.25368        2.46736        5.61562
C         -1.97662        1.26638        5.54275
C         -1.87537        0.42153        4.43454
C         -2.65803       -6.41517        1.20958
C         -3.75229       -6.43323        0.32902
C         -3.63202       -6.95820       -0.95937
C         -2.41553       -7.48198       -1.42590
C         -1.32104       -7.44941       -0.54804
C         -1.43732       -6.92270        0.74067
C         -4.12310       -6.00030        3.32450
C         -4.79109       -7.22937        3.19481
C         -5.96262       -7.49127        3.90673
C         -6.51353       -6.54262        4.78438
C         -5.83675       -5.32166        4.92149
C         -4.66312       -5.05568        4.20995
C         -0.08904      -10.55104        6.11407
C         -0.59412      -11.84931        6.04364
C         -1.58400      -12.36726        5.06064
C         -1.57285      -13.85042        5.19634
C         -0.68857      -14.21745        6.22515
C         -0.13170      -12.97877        6.84291
C         -0.48476      -15.57236        6.49273
C         -1.17641      -16.52969        5.73367
C         -2.07519      -16.14317        4.71876
C         -2.27414      -14.78325        4.44745
C         -2.29407       -8.09054       -2.81158
C         -7.79834       -6.83378        5.53976
O         -2.26861      -11.72793        4.27255
C          0.61198      -12.94461        8.02203
C          1.04549      -14.11021        8.73112
N          1.43850      -15.01170        9.35966
Cl        -0.88154      -18.21758        6.08904
Cl        -2.95391      -17.32211        3.77157
C         -1.38071        3.39893        6.80797
C          4.28263       -0.53805       -0.58715
C          0.98301      -11.74691        8.71492
N          1.30461      -10.82053        9.34805
C         -3.91008        7.57178        0.11490
N         -3.62199        7.44022        1.23845
H         -6.49969        4.78507       -5.69365
H         -5.27803        9.24801       -3.82960
H         -2.90885        5.48068       -0.59594
H         -5.18902        2.36129       -1.45779
H          0.15853       -2.30673        3.68327
H         -3.99094       -3.55819        1.10709
H          1.22950       -8.17886        6.41559
H          0.74655      -10.42646        6.78996
H          0.19586      -15.91833        7.25315
H         -2.95671      -14.47034        3.66941
H         -2.45678       -0.49184        4.42461
H          3.72228       -0.32939        2.09949
H          1.55548       -0.11017        3.19738
H          1.77042       -0.49401       -1.72765
H         -0.39841       -0.28956       -0.63386
H         -2.63147        0.98002        6.35965
H          0.14689        3.71036        4.54000
H          0.33546        2.23512        2.60928
H         -4.71321       -6.04652        0.64497
H         -4.50335       -6.95951       -1.60678
H         -0.56001       -6.91096        1.37506
H         -0.36057       -7.84012       -0.86882
H         -4.17413       -4.10098        4.35741
H         -6.22296       -4.56255        5.59418
H         -6.45030       -8.45186        3.77494
H         -4.40779       -7.99115        2.52872
H         -2.14198        4.16453        6.62091
H         -1.67248        2.85868        7.71125
H         -0.44027        3.91636        7.01175
H          4.19854       -0.99679       -1.57459
H          4.73512        0.45108       -0.71977
H          4.97723       -1.13764        0.00648
H         -7.75183       -7.80676        6.03703
H         -8.00019       -6.07634        6.29946
H         -8.65457       -6.85794        4.85715
H         -3.03286       -7.67442       -3.50020
H         -1.30205       -7.92241       -3.23759
H         -2.45442       -9.17390       -2.77253

  eps=4.88617
  epsinf=4.88617
  RSolv=8.36
 
