%mem=1000MW
%nprocshared=40
#p wB97XD/6-31g** nosymm pop=esp opt td=(triplet,nstates=2,root=1) scf=(MaxCycle=20000) iop(3/107=0001100000,3/108=0001100000) SCRF=(PCM,Solvent=Generic,Read)

 IT-4Cl opt-TDdft

0 1
C          0.49532       -0.28721       -0.01601
C          0.39414       -0.16811        1.37742
C          1.58552       -0.18827        2.12225
C          2.82581       -0.31046        1.49427
C          2.93156       -0.42237        0.09769
C          1.73955       -0.40786       -0.64173
C         -0.98558       -0.15188        2.08808
C         -2.13905        0.26449        1.16477
C         -3.01631       -0.83033        0.94733
C         -2.57471       -1.98550        1.62527
C         -1.38105       -1.62948        2.35306
S         -4.39515       -0.44791       -0.06818
C         -3.80241        1.20870       -0.20832
C         -2.58574        1.40999        0.51965
C         -4.28850        2.32285       -0.86736
C         -3.46073        3.46109       -0.67610
S         -2.05718        3.06559        0.35753
C         -0.73100       -2.55912        3.12646
C         -1.26144       -3.87788        3.17460
C         -2.44244       -4.24008        2.43085
C         -3.10136       -3.30713        1.66885
C         -0.82450       -5.03280        3.86070
C         -1.63981       -6.15113        3.56291
C         -2.77115       -5.74742        2.60655
S          0.48041       -5.37686        4.98122
C         -0.06529       -7.05275        5.05762
C         -1.21194       -7.29048        4.24108
S         -1.70546       -8.96608        4.33036
C         -0.39001       -9.32951        5.47017
C          0.38802       -8.16720        5.73844
C         -3.59998        4.80461       -1.08383
C         -4.44821        5.41390       -2.01967
C         -5.16062        4.75467       -3.15695
C         -5.59138        5.85760       -4.06492
C         -5.23601        7.09614       -3.50506
C         -4.59173        6.85132       -2.18309
C         -6.23462        5.75033       -5.28840
C         -6.52969        6.92519       -5.99327
C         -6.17324        8.17519       -5.44916
C         -5.52996        8.26761       -4.20408
Cl        -7.33400        6.79111       -7.54137
Cl        -6.51543        9.66575       -6.30029
O         -5.33976        3.56221       -3.36573
C         -4.28802        7.83756       -1.24225
C         -4.39399        9.24241       -1.49229
N         -4.44583       10.40627       -1.62991
C         -1.03800        0.73953        3.35634
C         -0.33249        1.95231        3.41464
C         -0.44011        2.79715        4.52112
C         -1.26194        2.47232        5.61240
C         -1.97451        1.26511        5.54580
C         -1.87012        0.41768        4.43952
C         -2.65958       -6.41537        1.21056
C         -3.75475       -6.43244        0.33113
C         -3.63619       -6.95719       -0.95753
C         -2.42058       -7.48178       -1.42540
C         -1.32514       -7.45019       -0.54866
C         -1.43970       -6.92366        0.74027
C         -4.12205       -6.00072        3.32728
C         -4.79056       -7.22953        3.19783
C         -5.96130       -7.49145        3.91103
C         -6.51088       -6.54305        4.78980
C         -5.83361       -5.32233        4.92661
C         -4.66077       -5.05633        4.21377
C         -0.08699      -10.55369        6.11085
C         -0.59303      -11.85160        6.04076
C         -1.58469      -12.36861        5.05905
C         -1.57437      -13.85181        5.19432
C         -0.68882      -14.21975        6.22170
C         -0.13024      -12.98163        6.83903
C         -0.48557      -15.57489        6.48857
C         -1.17906      -16.53151        5.73031
C         -2.07910      -16.14406        4.71687
C         -2.27747      -14.78392        4.44623
C         -2.30086       -8.09017       -2.81131
C         -7.79473       -6.83432        5.54674
O         -2.26997      -11.72862        4.27208
C          0.61513      -12.94833        8.01711
C          1.04885      -14.11443        8.72524
N          1.44215      -15.01640        9.35300
Cl        -0.88489      -18.21970        6.08479
Cl        -2.96010      -17.32210        3.77068
C         -1.39402        3.40906        6.80013
C          4.28563       -0.53268       -0.58063
C          0.98792      -11.75109        8.70985
N          1.31103      -10.82509        9.34285
C         -3.90426        7.57074        0.11190
N         -3.61554        7.43960        1.23547
H         -6.50049        4.78348       -5.69327
H         -5.27454        9.24634       -3.83191
H         -2.90547        5.47885       -0.59846
H         -5.18792        2.36012       -1.45737
H          0.16122       -2.30839        3.68198
H         -3.99164       -3.55813        1.11039
H          1.23325       -8.18225        6.41135
H          0.74967      -10.42984        6.78554
H          0.19596      -15.92155        7.24787
H         -2.96101      -14.47030        3.66932
H         -2.44464       -0.50005        4.43400
H          3.72310       -0.31941        2.10522
H          1.55491       -0.10248        3.20126
H          1.77424       -0.49634       -1.72292
H         -0.39598       -0.29446       -0.63086
H         -2.62453        0.97592        6.36554
H          0.12616        3.72297        4.52915
H          0.32146        2.24267        2.60268
H         -4.71508       -6.04515        0.64817
H         -4.50820       -6.95775       -1.60401
H         -0.56168       -6.91268        1.37369
H         -0.36529       -7.84153       -0.87053
H         -4.17136       -4.10182        4.36104
H         -6.21882       -4.56341        5.60008
H         -6.44939       -8.45185        3.77940
H         -4.40826       -7.99111        2.53093
H         -2.12463        4.19798        6.58961
H         -1.72909        2.88036        7.69495
H         -0.44404        3.89745        7.03052
H          4.20316       -0.99412       -1.56695
H          4.73591        0.45715       -0.71555
H          4.98128       -1.12913        0.01491
H         -7.74737       -7.80715        6.04424
H         -7.99588       -6.07673        6.30649
H         -8.65178       -6.85889        4.86517
H         -3.04225       -7.67599       -3.49827
H         -1.31023       -7.91962       -3.23962
H         -2.45836       -9.17392       -2.77175

  eps=4.88617
  epsinf=4.88617
  RSolv=8.36
 
