%mem=800MW
%nprocshared=64
#p wB97XD/6-31g** opt td=(nstates=2,root=1) pop=esp scf=(MaxCycle=20000) nosymm iop(3/107=0002200000,3/108=0002200000) SCRF=(PCM,Solvent=Generic,Read)

ITIC

0  1
C         -0.16768       -0.13831       -0.01000
C         -0.06640        0.03278        1.37576
C          1.16904       -0.21113        2.00797
C          2.30508       -0.59329        1.30153
C          2.19819       -0.75395       -0.08553
C          0.97143       -0.53425       -0.72549
C          1.01448       -0.01989        3.47406
C         -0.42138        0.30262        3.71291
C         -1.05726        0.45323        2.40830
C         -1.07868        0.33455        4.94262
C         -0.67175        0.23760        6.29379
S          0.97602        0.13311        6.95439
C          0.35728        0.12407        8.59271
C         -1.06987        0.18394        8.59702
C         -1.64035        0.25039        7.34058
C          0.90140        0.05474        9.87099
C         -0.10600        0.06352       10.86940
S         -1.73883        0.15763       10.23075
C          2.29223        0.00349       10.51834
C          1.88631        0.01888       12.01686
C          0.45092        0.01150       12.16437
C          2.70305        0.01833       13.11996
C          2.09269       -0.00479       14.40580
C          0.65793       -0.04958       14.55247
C         -0.15893       -0.03638       13.44958
C          0.25272       -0.12717       16.04946
C          1.64233       -0.06954       16.69896
C          2.64848        0.01034       15.70207
S          4.27851        0.12153       16.34487
C          3.61050        0.05519       17.97766
C          2.18542       -0.04299       17.97909
S          1.56878       -0.12422       19.61653
C          3.21429       -0.00734       20.28104
C          4.18070        0.07877       19.23548
C         -0.55653        1.10837       16.52560
C         -1.37616        1.04628       17.66318
C         -2.03767        2.18128       18.13881
C         -1.90372        3.42596       17.50468
C         -1.06968        3.48818       16.37685
C         -0.40722        2.35582       15.89879
C         -2.65105        4.64995       18.00297
C         -0.46481       -1.48507       16.26787
C         -1.84355       -1.61945       16.03154
C         -2.47495       -2.85968       16.13564
C         -1.75903       -4.01997       16.47580
C         -0.38144       -3.88369       16.69977
C          0.25419       -2.64329       16.59439
C          3.62265        0.03772       21.63436
C          2.97024       -0.05808       22.86363
C          3.60561        0.05253       24.17234
C          2.61728       -0.40806       25.19057
C          1.38565       -0.64790       24.54970
C          1.53954       -0.41056       23.09057
C          0.25301       -1.06354       25.24261
C          0.35902       -1.26110       26.62497
C          1.58173       -1.04399       27.27338
C          2.71748       -0.61556       26.57149
C          3.08051        1.26643       10.08257
C          3.90267        1.25086        8.94515
C          4.54651        2.40939        8.50378
C          4.39141        3.63269        9.17372
C          3.55495        3.64863       10.30146
C          2.90989        2.49237       10.74542
C          3.03491       -1.33380       10.25579
C          2.33895       -2.49245        9.88453
C          2.99768       -3.71668        9.73858
C          4.37637       -3.83594        9.96496
C          5.06941       -2.67548       10.34928
C          4.41499       -1.45148       10.49407
C          4.86834        0.56890       24.46749
C          5.75428        1.16312       23.51176
N          6.52549        1.67704       22.80165
O          0.65365       -0.50869       22.24974
C         -2.45713       -5.36069       16.61888
C          5.11989        4.88273        8.71374
C          5.09954       -5.15805        9.77968
C         -2.32121        0.97620        2.13236
C         -3.20442        1.53817        3.11005
N         -3.97252        2.02847        3.83988
O          1.90342       -0.12893        4.31023
C          5.42431        0.62908       25.78552
N          5.95106        0.71128       26.82401
C         -2.87808        1.08147        0.81757
N         -3.40450        1.19909       -0.21762
H         -0.50344       -1.58802       27.19427
H          1.65881       -1.21024       28.34177
H         -0.68094       -1.23160       24.72086
H          3.64047       -0.46816       27.11000
H          4.69614        0.15376       21.69949
H          5.23920        0.16166       19.43513
H         -1.23517       -0.05667       13.54339
H          3.77925        0.03875       13.02589
H         -2.70071        0.31382        7.14312
H         -2.15432        0.43154        4.87856
H         -1.09401        0.01200       -0.54208
H          0.89373       -0.67375       -1.79764
H          3.06318       -1.05482       -0.66530
H          3.24198       -0.76483        1.81678
H          0.23214        2.45833       15.03107
H         -3.54263       -2.92115       15.94940
H         -2.43913       -0.75358       15.77024
H          0.21205       -4.75425       16.96050
H          1.32197       -2.59275       16.76559
H         -0.92939        4.43328       15.86176
H         -2.66384        2.08897       19.02044
H         -1.51257        0.10894       18.18630
H          4.99349       -0.58465       10.78851
H          6.13726       -2.72393       10.53843
H          1.27131       -2.45617        9.70915
H          2.42130       -4.58806        9.44446
H          2.26756        2.55880       11.61464
H          3.39898        4.57627       10.84312
H          5.17555        2.35287        7.62114
H          4.05484        0.33136        8.39535
H         -2.83013        4.59769       19.07925
H         -2.09868        5.56951       17.79613
H         -3.62673        4.73620       17.51136
H         -1.75387       -6.19045       16.52191
H         -2.93656       -5.44728       17.60031
H         -3.23661       -5.48741       15.86312
H          5.29236        4.87132        7.63513
H          4.55711        5.78710        8.95655
H          6.09769        4.96421        9.20191
H          5.87190       -5.30043       10.54000
H          4.41000       -6.00293        9.83554
H          5.59248       -5.19829        8.80199
                                                   
  eps=4.53299                                      
  epsinf=4.53299                                   
  RSolv=8.11                                       
                                                   
