%mem=1000MW
%nprocshared=40
%chk=IT-4Cl-TDDFT-scan-90-T2.chk
#p wB97XD/6-31g** td=(triplet,nstates=2) scf=(MaxCycle=20000) iop(3/107=0001100000,3/108=0001100000) SCRF=(PCM,Solvent=Generic,Read)

 NTO

0 1
C          0.57216       -0.27678        0.07687
C          0.45518       -0.16013        1.46945
C          1.63761       -0.19374        2.22789
C          2.88433       -0.32667        1.61433
C          3.00560       -0.43644        0.21912
C          1.82235       -0.40872       -0.53425
C         -0.93342       -0.13008        2.16329
C         -2.07228        0.30468        1.22920
C         -2.95523       -0.75198        1.00280
C         -2.52510       -1.94571        1.69368
C         -1.34886       -1.60343        2.41664
S         -4.32188       -0.35672       -0.00697
C         -3.70992        1.28968       -0.14877
C         -2.50245        1.47336        0.57720
C         -4.17856        2.41695       -0.81585
C         -3.33163        3.53492       -0.62667
S         -1.94421        3.11539        0.41852
C         -0.70367       -2.55507        3.19172
C         -1.24541       -3.85288        3.22378
C         -2.41052       -4.20033        2.48381
C         -3.06199       -3.24500        1.71803
C         -0.81351       -5.04452        3.91168
C         -1.63227       -6.13369        3.59509
C         -2.75539       -5.70532        2.63880
S          0.47667       -5.40667        5.03169
C         -0.07963       -7.07904        5.08759
C         -1.21814       -7.29498        4.26516
S         -1.72517       -8.96880        4.32326
C         -0.42026       -9.36288        5.46369
C          0.36502       -8.20918        5.75615
C         -3.44484        4.88186       -1.04104
C         -4.26381        5.48925       -2.00356
C         -4.92591        4.81627       -3.17162
C         -5.35070        5.91239       -4.08706
C         -5.04021        7.15559       -3.50887
C         -4.42070        6.92033       -2.17584
C         -5.96197        5.79696       -5.32601
C         -6.27250        6.96841       -6.02980
C         -5.96483        8.22308       -5.46645
C         -5.35262        8.32386       -4.20643
Cl        -7.03610        6.82423       -7.59750
Cl        -6.33176        9.71020       -6.31272
O         -5.06777        3.62122       -3.38466
C         -4.13740        7.91393       -1.22720
C         -4.22701        9.31619       -1.48795
N         -4.26583       10.47403       -1.63543
C         -0.98483        0.75298        3.43782
C         -0.27172        1.96160        3.50614
C         -0.37436        2.79822        4.61854
C         -1.19722        2.46875        5.70863
C         -1.91943        1.26900        5.63061
C         -1.81977        0.42903        4.51720
C         -2.64377       -6.35640        1.23447
C         -3.73389       -6.35076        0.34865
C         -3.61370       -6.86043       -0.94611
C         -2.40126       -7.39166       -1.41416
C         -1.31039       -7.38255       -0.53098
C         -1.42681       -6.87198        0.76400
C         -4.11380       -5.95244        3.34768
C         -4.79448       -7.17104        3.20117
C         -5.97425       -7.42777        3.90446
C         -6.51875       -6.48363        4.78844
C         -5.82747       -5.27114        4.94351
C         -4.64867       -5.01067        4.24134
C         -0.12964      -10.60010        6.08543
C         -0.64710      -11.89624        5.98846
C         -1.63039      -12.38859        4.97500
C         -1.65007      -13.87063        5.09583
C         -0.79327      -14.26050        6.14094
C         -0.21795      -13.04008        6.77236
C         -0.63098      -15.62177        6.40713
C         -1.33074      -16.55861        5.62905
C         -2.19751      -16.14859        4.59653
C         -2.35847      -14.78236        4.32884
C         -2.28005       -7.98390       -2.80696
C         -7.81799       -6.74986        5.52780
O         -2.28577      -11.72429        4.18484
C          0.53205      -13.02877        7.95986
C          0.96803      -14.20682        8.64105
N          1.36593      -15.12275        9.24692
Cl        -1.08634      -18.25462        5.98540
Cl        -3.08337      -17.30191        3.62347
C         -1.28088        3.37617        6.92325
C          4.36639       -0.55741       -0.44390
C          0.90007      -11.84821        8.67811
N          1.22100      -10.93545        9.33269
C         -3.79156        7.65055        0.13603
N         -3.53247        7.52022        1.26727
H         -6.19207        4.82625       -5.74335
H         -5.13668        9.30646       -3.81994
H         -2.76010        5.55241       -0.53709
H         -5.07990        2.46592       -1.40169
H          0.18911       -2.31473        3.75104
H         -3.95117       -3.48610        1.15331
H          1.20617       -8.24069        6.43337
H          0.70132      -10.49520        6.76989
H          0.02234      -15.98827        7.18190
H         -3.01864      -14.44937        3.53973
H         -2.40292       -0.48312        4.50262
H          3.77400       -0.34562        2.23616
H          1.59510       -0.10934        3.30661
H          1.86919       -0.49493       -1.61520
H         -0.31181       -0.27374       -0.54846
H         -2.57315        0.97780        6.44666
H          0.19648        3.72127        4.63389
H          0.38324        2.25453        2.69582
H         -4.69197       -5.95742        0.66502
H         -4.48217       -6.84386       -1.59718
H         -0.55263       -6.87845        1.40267
H         -0.35285       -7.77982       -0.85254
H         -4.14874       -4.06380        4.40203
H         -6.20849       -4.51588        5.62375
H         -6.47064       -8.38195        3.75972
H         -4.41562       -7.93062        2.52995
H         -1.49559        4.40844        6.63205
H         -2.06003        3.05298        7.61603
H         -0.33159        3.38426        7.46942
H          4.29176       -1.02125       -1.42975
H          4.82438        0.42916       -0.57698
H          5.05178       -1.15648        0.16082
H         -7.97956       -7.81888        5.68243
H         -7.82941       -6.26111        6.50483
H         -8.67337       -6.36637        4.96014
H         -3.01679       -7.55735       -3.49136
H         -1.28705       -7.81346       -3.22987
H         -2.44333       -9.06723       -2.78149

  eps=4.88617
  epsinf=4.88617
  RSolv=8.36
 
