%mem=800MW
%nprocshared=32
%chk=IT-4Cl-HSO-scan-100-S1fromT2.chk
%rwf=IT-4Cl-HSO-scan-100-S1fromT2.rwf
#p wB97XD/6-31g** td(50-50,nstates=5) 6D 10F nosymm GFInput scf=(MaxCycle=20000) iop(3/107=0001100000,3/108=0001100000) SCRF=(PCM,Solvent=Generic,Read)

 HSO

0 1
C               0.5967900000     -0.1499000000      0.0186900000
C               0.4501100000     -0.0964600000      1.4115700000
C               1.6200000000     -0.1045300000      2.1910300000
C               2.8814100000     -0.1482500000      1.5962300000
C               3.0321100000     -0.1900200000      0.1994200000
C               1.8626400000     -0.1919300000     -0.5742000000
C              -0.9498800000     -0.1564400000      2.0770300000
C              -2.0914300000      0.2569100000      1.1360900000
C              -2.9323400000     -0.8256500000      0.8757900000
C              -2.4681800000     -2.0172600000      1.5471600000
C              -1.3077900000     -1.6521700000      2.2845200000
S              -4.3031700000     -0.4568400000     -0.1386200000
C              -3.7509800000      1.2136500000     -0.2351200000
C              -2.5583000000      1.4243200000      0.5079200000
C              -4.2545800000      2.3382500000     -0.8804800000
C              -3.4516500000      3.4821200000     -0.6563200000
S              -2.0593100000      3.0886700000      0.3932100000
C              -0.6381400000     -2.5980300000      3.0461300000
C              -1.1479300000     -3.9094800000      3.0617000000
C              -2.3035700000     -4.2756300000      2.3156500000
C              -2.9716000000     -3.3297300000      1.5530500000
C              -0.6989300000     -5.0960600000      3.7487500000
C              -1.5019700000     -6.1961100000      3.4300600000
C              -2.6281700000     -5.7846300000      2.4707100000
S               0.5840700000     -5.4395900000      4.8835200000
C               0.0420600000     -7.1168300000      4.9467500000
C              -1.0820400000     -7.3492600000      4.1099500000
S              -1.5940100000     -9.0196700000      4.1940700000
C              -0.3008800000     -9.3960100000      5.3536900000
C               0.4801000000     -8.2367200000      5.6373600000
C              -3.6077500000      4.8334700000     -1.0417800000
C              -4.4446300000      5.4384700000     -1.9904400000
C              -5.1004200000      4.7730000000     -3.1663200000
C              -5.5539600000      5.8758100000     -4.0593900000
C              -5.2664200000      7.1148100000     -3.4609500000
C              -4.6340500000      6.8690700000     -2.1358600000
C              -6.1714900000      5.7689400000     -5.2959800000
C              -6.5119400000      6.9455900000     -5.9768000000
C              -6.2269000000      8.1964700000     -5.3935000000
C              -5.6084700000      8.2881900000     -4.1358200000
Cl             -7.2841200000      6.8126900000     -7.5412500000
Cl             -6.6305500000      9.6898100000     -6.2113700000
O              -5.2211500000      3.5793700000     -3.3998000000
C              -4.3666000000      7.8522400000     -1.1717000000
C              -4.4861300000      9.2565300000     -1.4083600000
N              -4.5490900000     10.4156600000     -1.5359900000
C              -1.0737100000      0.6850400000      3.3760400000
C              -0.4196600000      1.9194600000      3.5050600000
C              -0.5999200000      2.7180200000      4.6385800000
C              -1.4462200000      2.3227000000      5.6846900000
C              -2.1069000000      1.0902600000      5.5479200000
C              -1.9290800000      0.2906000000      4.4180700000
C              -2.5108700000     -6.4386000000      1.0687500000
C              -3.6008100000     -6.4418700000      0.1826200000
C              -3.4778500000     -6.9559400000     -1.1100400000
C              -2.2627200000     -7.4833900000     -1.5754900000
C              -1.1722000000     -7.4655800000     -0.6920400000
C              -1.2913000000     -6.9501900000      0.6009100000
C              -3.9835300000     -6.0461700000      3.1819200000
C              -4.6524100000     -7.2727700000      3.0353500000
C              -5.8264700000     -7.5423100000      3.7406100000
C              -6.3793900000     -6.6040000000      4.6279200000
C              -5.7023300000     -5.3852000000      4.7813100000
C              -4.5264900000     -5.1116100000      4.0762900000
C               0.0103700000    -10.6328400000      5.9678400000
C              -0.5451400000    -11.9164100000      5.9369600000
C              -1.8111300000    -12.3177800000      5.2509400000
C              -2.1030200000    -13.7084400000      5.6846900000
C              -1.0764800000    -14.1515600000      6.5376200000
C              -0.0490200000    -13.0783700000      6.6538000000
C              -1.1680300000    -15.4313700000      7.0905100000
C              -2.2745100000    -16.2361000000      6.7729700000
C              -3.2859900000    -15.7791200000      5.9048400000
C              -3.1952500000    -14.4945100000      5.3527000000
C              -2.1386400000     -8.0810700000     -2.9657000000
C              -7.6658900000     -6.9038600000      5.3771800000
O              -2.4937600000    -11.6483100000      4.4884300000
C               1.1945100000    -13.2282700000      7.2904600000
C               1.5771600000    -14.3874500000      8.0333600000
N               1.9579500000    -15.2942400000      8.6634900000
Cl             -2.3540600000    -17.8290400000      7.4937700000
Cl             -4.6678400000    -16.7710800000      5.4943000000
C              -1.6671200000      3.1984100000      6.9053700000
C               4.4104400000     -0.2146400000     -0.4374700000
C               2.2601700000    -12.2764400000      7.2384400000
N               3.1843200000    -11.5618100000      7.2293500000
C              -4.0091200000      7.5738100000      0.1855100000
N              -3.7422900000      7.4302300000      1.3133500000
H              -6.3836700000      4.8008800000     -5.7286600000
H              -5.4112600000      9.2682500000     -3.7333900000
H              -2.9437000000      5.5130800000     -0.5226300000
H              -5.1500800000      2.3681500000     -1.4764800000
H               0.2447400000     -2.3412800000      3.6138900000
H              -3.8528300000     -3.5860000000      0.9827700000
H               1.3172000000     -8.2583500000      6.3199800000
H               0.8638000000    -10.5243000000      6.6223400000
H              -0.4259500000    -15.8291300000      7.7629300000
H              -3.9612600000    -14.1260400000      4.6841200000
H              -2.4665600000     -0.6470600000      4.3574900000
H               3.7603900000     -0.1483000000      2.2334600000
H               1.5546600000     -0.0676500000      3.2712900000
H               1.9315600000     -0.2280500000     -1.6567300000
H              -0.2752300000     -0.1648500000     -0.6230600000
H              -2.7742600000      0.7468100000      6.3321600000
H              -0.0710100000      3.6636100000      4.7003500000
H               0.2493500000      2.2656900000      2.7279700000
H              -4.5611200000     -6.0526300000      0.4974500000
H              -4.3461900000     -6.9461000000     -1.7614300000
H              -0.4173700000     -6.9502200000      1.2400200000
H              -0.2127700000     -7.8598400000     -1.0116000000
H              -4.0373600000     -4.1591800000      4.2364000000
H              -6.0902300000     -4.6334900000      5.4613900000
H              -6.3141900000     -8.5010700000      3.5961500000
H              -4.2676700000     -8.0270900000      2.3616200000
H              -0.8986200000      3.9689200000      6.9924100000
H              -2.6373900000      3.7036400000      6.8479300000
H              -1.6608800000      2.6089900000      7.8263000000
H               4.3552100000     -0.4275800000     -1.5066800000
H               4.9128300000      0.7511100000     -0.3163400000
H               5.0485700000     -0.9726300000      0.0256700000
H              -7.6152200000     -7.8768800000      5.8741700000
H              -7.8760300000     -6.1483000000      6.1365200000
H              -8.5189700000     -6.9333100000      4.6909300000
H              -2.8759900000     -7.6593700000     -3.6524700000
H              -1.1457500000     -7.9097800000     -3.3884700000
H              -2.2991300000     -9.1647000000     -2.9357300000

  eps=4.88617
  epsinf=4.88617
  RSolv=8.36
 
