%mem=1000MW
%nprocshared=64
#p wB97XD/6-31g** nosymm pop=esp opt td=(triplet,nstates=3,root=2) scf=(MaxCycle=20000) iop(3/107=0001100000,3/108=0001100000) SCRF=(PCM,Solvent=Generic,Read)

 IT-4Cl opt-TDdft

0 1
C          0.58078       -0.27113        0.09012
C          0.45877       -0.15117        1.48189
C          1.63831       -0.17580        2.24509
C          2.88768       -0.30254        1.63605
C          3.01438       -0.41480        0.24132
C          1.83386       -0.39642       -0.51649
C         -0.93253       -0.12949        2.16922
C         -2.06752        0.30072        1.22941
C         -2.95324       -0.78430        0.99748
C         -2.53172       -1.94646        1.67637
C         -1.34310       -1.60549        2.41938
S         -4.31270       -0.38703       -0.03790
C         -3.69933        1.26262       -0.16926
C         -2.49213        1.45112        0.57767
C         -4.16177        2.38100       -0.83805
C         -3.32425        3.50987       -0.63537
S         -1.94226        3.10044        0.42152
C         -0.70853       -2.54602        3.19265
C         -1.25014       -3.86068        3.22566
C         -2.42757       -4.20700        2.46862
C         -3.07082       -3.26331        1.70653
C         -0.82884       -5.02505        3.90596
C         -1.65322       -6.13291        3.59416
C         -2.77125       -5.71248        2.62997
S          0.46767       -5.39168        5.02895
C         -0.09354       -7.06344        5.08665
C         -1.23996       -7.28196        4.26461
S         -1.75268       -8.95242        4.33864
C         -0.43697       -9.34324        5.46947
C          0.35018       -8.19035        5.75312
C         -3.44071        4.85362       -1.04933
C         -4.26628        5.46963       -2.00086
C         -4.96897        4.81473       -3.14677
C         -5.37544        5.91939       -4.06360
C         -5.01432        7.15569       -3.50260
C         -4.39081        6.90804       -2.17117
C         -6.00434        5.81525       -5.29484
C         -6.27844        6.99109       -6.00642
C         -5.91608        8.23887       -5.46113
C         -5.28721        8.32818       -4.20847
Cl        -7.06490        6.86092       -7.56398
Cl        -6.23304        9.73054       -6.31993
O         -5.15775        3.62371       -3.35485
C         -4.08815        7.89433       -1.22992
C         -4.17243        9.29924       -1.48684
N         -4.20698       10.45739       -1.62910
C         -0.99975        0.75392        3.44247
C         -0.29047        1.96444        3.51824
C         -0.40917        2.80164        4.62833
C         -1.24525        2.47128        5.70825
C         -1.96336        1.26968        5.62253
C         -1.84797        0.42906        4.51114
C         -2.64864       -6.37169        1.23064
C         -3.73296       -6.37482        0.33784
C         -3.60222       -6.89168       -0.95290
C         -2.38474       -7.42157       -1.40975
C         -1.29986       -7.40362       -0.51957
C         -1.42671       -6.88544        0.77148
C         -4.13232       -5.95857        3.33362
C         -4.81166       -7.17805        3.18785
C         -5.99403       -7.43317        3.88714
C         -6.54246       -6.48660        4.76612
C         -5.85219       -5.27344        4.92082
C         -4.67049       -5.01468        4.22304
C         -0.13056      -10.58150        6.08135
C         -0.64472      -11.87563        5.99746
C         -1.68985      -12.35518        5.05371
C         -1.70975      -13.83937        5.16589
C         -0.78310      -14.24512        6.14105
C         -0.15761      -13.03108        6.74394
C         -0.60907      -15.60927        6.38306
C         -1.36925      -16.53514        5.65105
C         -2.30529      -16.10898        4.68703
C         -2.47683      -14.74026        4.44301
C         -2.25223       -8.02140       -2.79823
C         -7.84462       -6.75111        5.50081
O         -2.39664      -11.68739        4.30993
C          0.67464      -13.04248        7.86329
C          1.13432      -14.23437        8.50944
N          1.55526      -15.15877        9.08446
Cl        -1.11339      -18.23554        5.97555
Cl        -3.26521      -17.24811        3.77052
C         -1.34852        3.38178        6.91890
C          4.37829       -0.52942       -0.41625
C          1.13752      -11.87324        8.54926
N          1.53979      -10.97306        9.17419
C         -3.72416        7.62871        0.12990
N         -3.45053        7.49924        1.25730
H         -6.27549        4.85009       -5.70028
H         -5.02606        9.30527       -3.83604
H         -2.74638        5.52108       -0.55446
H         -5.05094        2.42721       -1.44265
H          0.18027       -2.30681        3.75872
H         -3.95748       -3.50288        1.13738
H          1.19661       -8.22115        6.42400
H          0.71990      -10.47381        6.74066
H          0.09587      -15.98653        7.10537
H         -3.18851      -14.39631        3.70516
H         -2.42898       -0.48431        4.49044
H          3.77537       -0.31470        2.26083
H          1.59121       -0.08983        3.32348
H          1.88503       -0.48535       -1.59697
H         -0.30132       -0.27540       -0.53798
H         -2.62694        0.97790        6.43031
H          0.15903        3.72613        4.64998
H          0.37363        2.25849        2.71590
H         -4.69435       -5.98247        0.64521
H         -4.46617       -6.88181       -1.61005
H         -0.55685       -6.88490        1.41610
H         -0.33878       -7.79927       -0.83231
H         -4.17195       -4.06698        4.38319
H         -6.23616       -4.51650        5.59748
H         -6.48937       -8.38797        3.74324
H         -4.42973       -7.93953        2.52060
H         -1.58494        4.40785        6.62231
H         -2.12104        3.04559        7.61283
H         -0.39976        3.41298        7.46495
H          4.30970       -0.99261       -1.40281
H          4.83248        0.45926       -0.54639
H          5.06372       -1.12604        0.19084
H         -8.00789       -7.81987        5.65534
H         -7.85906       -6.26180        6.47751
H         -8.69736       -6.36681        4.92977
H         -2.98660       -7.60221       -3.48963
H         -1.25736       -7.84901       -3.21592
H         -2.41089       -9.10525       -2.76714

  eps=4.88617
  epsinf=4.88617
  RSolv=8.36
 
