%mem=800MW
%nprocshared=64
#p wB97XD/6-31g** opt td=(nstates=2,root=1) pop=esp scf=(MaxCycle=20000) nosymm iop(3/107=0003000000,3/108=0003000000) SCRF=(PCM,Solvent=Generic,Read)

IT-M

0  1
C          0.12919       -0.50855        0.04257
C          0.15090       -0.40062        1.43885
C          1.38475       -0.21661        2.09233
C          2.58504       -0.14852        1.39214
C          2.54972       -0.26054       -0.00003
C          1.33114       -0.43759       -0.68648
C          1.15634       -0.11573        3.55256
C         -0.31745       -0.21409        3.76305
C         -0.93124       -0.46379        2.46079
C         -0.99768       -0.01267        4.95846
C         -0.61461        0.21314        6.30925
S          1.01882        0.27625        7.00861
C          0.36313        0.53301        8.60792
C         -1.05799        0.56825        8.57434
C         -1.60266        0.39416        7.30909
C          0.87766        0.70122        9.89767
C         -0.15148        0.86208       10.84730
S         -1.76493        0.81553       10.17013
C          0.37091        1.02032       12.15512
C          1.80531        1.00301       12.04629
C          2.25087        0.80363       10.57433
C         -0.27509        1.15962       13.40976
C          0.51199        1.27074       14.53189
C          1.94658        1.25925       14.42282
C          2.59249        1.12248       13.16763
C          0.06530        1.38240       16.01254
C          1.43768        1.44418       16.69440
C          2.46810        1.39362       15.73410
S          4.07945        1.50833       16.40802
C          3.36922        1.61832       18.01813
C          1.94837        1.57195       17.98988
S          1.28721        1.65773       19.60506
C          2.91810        1.76973       20.30379
C          3.90968        1.73382       19.29217
C         -0.73806        0.10175       16.35685
C         -2.11939        0.02778       16.11734
C         -2.82768       -1.15484       16.34296
C         -2.18812       -2.31273       16.81189
C         -0.80405       -2.23878       17.03652
C         -0.09261       -1.05905       16.80968
C         -2.96018       -3.58973       17.09066
C         -0.67688        2.70993       16.32290
C         -1.52713        2.82398       17.43377
C         -2.12942        4.04181       17.75798
C         -1.90084        5.19750       16.99479
C         -1.03507        5.08380       15.89549
C         -0.43250        3.86778       15.56743
C          3.29119        1.90404       21.66957
C          2.60545        1.90737       22.87774
C          1.15485        1.62155       23.08444
C          0.96283        1.44996       24.54433
C          2.18658        1.67611       25.20558
C          3.21185        2.06270       24.19778
C          2.25137        1.52302       26.59476
C          1.09746        1.15828       27.31564
C         -0.11543        0.95944       26.62682
C         -0.19125        1.10178       25.23791
C          2.97689        2.04304        9.98516
C          3.77168        1.92951        8.83348
C          4.36610        3.05217        8.25386
C          4.19037        4.33505        8.79608
C          3.38304        4.44677        9.93876
C          2.78462        3.32632       10.51969
C          3.07873       -0.50487       10.50802
C          4.46548       -0.49165       10.73371
C          5.20036       -1.67740       10.76870
C          4.58400       -2.92622       10.58300
C          3.19771       -2.93559       10.36898
C          2.45769       -1.75008       10.33661
O          0.28567        1.52760       22.22473
C          4.48432        2.55877       24.49774
C          5.39954        3.09086       23.53487
N          6.19285        3.55513       22.81383
H         -1.00597        0.68613       27.18235
C         -2.58287        6.51158       17.32943
C          4.87009        5.54732        8.18557
C          5.39657       -4.20868       10.58718
C         -2.26940       -0.77131        2.18895
C         -3.27830       -0.99312        3.17884
N         -4.15499       -1.20589        3.92146
O          2.02148        0.03309        4.40900
H          3.47592       -0.20896       -0.56210
C          5.01687        2.66136       25.82152
N          5.52581        2.77387       26.86676
C         -2.80580       -0.94924        0.87492
N         -3.32740       -1.10186       -0.15906
H          3.52252       -0.01208        1.91727
H         -0.79511       -0.64203       -0.49741
H         -2.07578       -0.01178        4.87485
H         -2.65999        0.38399        7.08707
H          3.67101        1.10785       13.10492
H         -1.35359        1.17071       13.47207
H          4.96543        1.79521       19.51377
H          4.36581        1.99438       21.75624
H          3.17518        1.66702       27.13339
C          1.16665        0.95201       28.81735
H         -1.12429        0.94278       24.71131
H          2.16402        3.46796       11.39516
H          6.27075       -1.62399       10.94110
H          4.98498        0.44744       10.87745
H          2.68096       -3.87887       10.22454
H          1.38790       -1.81144       10.18007
H          3.21505        5.42055       10.38778
H          4.97391        2.92018        7.36464
H          3.94339        0.96046        8.38350
H         -2.65849        0.89586       15.75924
H         -3.89592       -1.16855       16.15123
H          0.97561       -1.05663       16.98668
H         -0.26865       -3.11251       17.39410
H          0.23606        3.83464       14.71645
H         -0.82211        5.95515       15.28432
H         -2.78437        4.08613       18.62217
H         -1.73318        1.96117       18.05350
H          5.01820        5.42301        7.11061
H          4.28826        6.45795        8.34510
H          5.85621        5.70552        8.63690
H          4.76884       -5.08206       10.77564
H          5.88907       -4.35843        9.62003
H          6.17810       -4.18305       11.35074
H         -2.75080        6.61377       18.40397
H         -1.98947        7.36655       16.99754
H         -3.55943        6.57855       16.83677
H         -3.92965       -3.59154       16.58847
H         -2.40580       -4.47112       16.75774
H         -3.14307       -3.70656       18.16447
C          1.32582       -0.55302       -2.19958
H          2.02199        1.46756       29.25659
H          0.26018        1.31191       29.30919
H          1.26625       -0.11383       29.04994
H          0.31747       -0.68131       -2.59468
H          1.75833        0.34111       -2.65849
H          1.92698       -1.40792       -2.52405
                                                 
  eps=4.46238                                      
  epsinf=4.46238                                   
  RSolv=7.54                                       
  
