%mem=800MW
%nprocshared=32
%chk=IT-4Cl-HSO-scan-90-S1toT2.chk
%rwf=IT-4Cl-HSO-scan-90-S1toT2.rwf
#p wB97XD/6-31g** td(50-50,nstates=5) 6D 10F nosymm GFInput scf=(MaxCycle=20000) iop(3/107=0001100000,3/108=0001100000) SCRF=(PCM,Solvent=Generic,Read)

IT-4Cl-scan-9  HSO

0  1
C              -0.0980400000     -0.0502000000     -0.1222000000
C              -0.0392900000     -0.0334400000      1.2788700000
C               1.2293500000     -0.0660600000      1.8809600000
C               2.3916300000     -0.0958600000      1.1079000000
C               2.3375000000     -0.0965700000     -0.2956500000
C               1.0676700000     -0.0759000000     -0.8921900000
C              -1.3275900000     -0.0996600000      2.1406600000
C              -2.5899900000      0.3180200000      1.3779000000
C              -3.4677000000     -0.7805100000      1.2319700000
C              -2.9181500000     -1.9557000000      1.8139400000
C              -1.6537400000     -1.5949200000      2.3837000000
S              -4.9571000000     -0.4060900000      0.4070500000
C              -4.4187100000      1.2613900000      0.2491900000
C              -3.1350800000      1.4759900000      0.8252000000
C              -4.9986300000      2.3998700000     -0.3208600000
C              -4.1665600000      3.5147600000     -0.2134600000
S              -2.6647700000      3.1490000000      0.6375100000
C              -0.8852600000     -2.5448700000      3.0276400000
C              -1.3908800000     -3.8582700000      3.1016800000
C              -2.6551100000     -4.2207300000      2.5350300000
C              -3.4219000000     -3.2764800000      1.8880300000
C              -0.8413400000     -5.0453500000      3.6928300000
C              -1.6849500000     -6.1376600000      3.5016800000
C              -2.9510200000     -5.7291800000      2.7383900000
S               0.6157000000     -5.3947900000      4.5894900000
C               0.0939800000     -7.0670300000      4.7236900000
C              -1.1530200000     -7.3013500000      4.1004200000
S              -1.6371200000     -8.9636400000      4.2564100000
C              -0.1608700000     -9.3398000000      5.1657400000
C               0.6501700000     -8.2017900000      5.3195100000
C              -4.4948800000      4.9016000000     -0.5798300000
C              -4.2134100000      5.5239900000     -1.7704600000
C              -3.4810700000      4.8279400000     -2.8951000000
C              -3.3351800000      5.8338100000     -3.9763700000
C              -3.9499600000      7.0370100000     -3.5576400000
C              -4.5044800000      6.8763900000     -2.2028200000
C              -2.7330900000      5.6826700000     -5.2139300000
C              -2.7291700000      6.7714000000     -6.0993300000
C              -3.3414700000      7.9760700000     -5.7066200000
C              -3.9516200000      8.1185900000     -4.4509900000
Cl             -1.9615400000      6.5797900000     -7.6687200000
Cl             -3.3714600000      9.3651100000     -6.7816900000
O              -3.0889500000      3.6698500000     -2.9147300000
C              -5.2068200000      7.8818700000     -1.4711200000
C              -5.3343600000      9.2326500000     -1.8941400000
N              -5.4677400000     10.3605100000     -2.1840500000
C              -1.2685300000      0.7308000000      3.4515800000
C              -0.5785200000      1.9530300000      3.5011500000
C              -0.5933800000      2.7402500000      4.6535600000
C              -1.3020200000      2.3461900000      5.8012000000
C              -2.0005200000      1.1310100000      5.7423500000
C              -1.9896400000      0.3404500000      4.5898100000
C              -3.0636000000     -6.3824300000      1.3352500000
C              -4.2823900000     -6.3780000000      0.6374800000
C              -4.3730800000     -6.8894500000     -0.6585100000
C              -3.2519900000     -7.4237100000     -1.3143700000
C              -2.0332400000     -7.4131300000     -0.6190500000
C              -1.9380600000     -6.8995300000      0.6772100000
C              -4.1749800000     -5.9901100000      3.6598300000
C              -4.8617500000     -7.2131400000      3.6193200000
C              -5.9114700000     -7.4809900000      4.5019700000
C              -6.3161000000     -6.5432800000      5.4639500000
C              -5.6168800000     -5.3260000000      5.5108700000
C              -4.5666000000     -5.0554200000      4.6316300000
C               0.2404300000    -10.5842600000      5.7468800000
C              -0.2823100000    -11.8587000000      5.7693500000
C              -1.4619100000    -12.3552800000      5.0033000000
C              -1.4380800000    -13.8371900000      5.1180400000
C              -0.3651400000    -14.2321700000      5.9362100000
C               0.3204600000    -13.0168700000      6.4544600000
C              -0.1292600000    -15.5952300000      6.1367700000
C              -0.9795800000    -16.5303700000      5.5312500000
C              -2.0672000000    -16.1154600000      4.7304800000
C              -2.2948400000    -14.7514900000      4.5198500000
C              -3.3605500000     -8.0166100000     -2.7080500000
C              -7.4805100000     -6.8189700000      6.3983400000
O              -2.2808100000    -11.6967300000      4.3788800000
C               1.2649500000    -13.0052000000      7.4665700000
C               1.7976100000    -14.1864000000      8.0818200000
N               2.2792600000    -15.0983300000      8.6254200000
Cl             -0.6488700000    -18.2254000000      5.7973600000
Cl             -3.1442100000    -17.2679600000      3.9819700000
C              -1.2914400000      3.1996000000      7.0568200000
C               3.6032900000     -0.0867400000     -1.1339300000
C               1.7907700000    -11.8164900000      8.0748300000
N               2.2479500000    -10.8989200000      8.6304500000
C              -5.8667900000      7.6530500000     -0.2341400000
N              -6.4366800000      7.5247700000      0.7827300000
H              -2.2751200000      4.7438800000     -5.4947900000
H              -4.4107600000      9.0630500000     -4.2082700000
H              -5.0119300000      5.4405900000      0.2043500000
H              -5.9654100000      2.4413500000     -0.7994000000
H               0.0701100000     -2.2967400000      3.4657000000
H              -4.3776400000     -3.5245600000      1.4503300000
H               1.5919300000     -8.2209300000      5.8490200000
H               1.1842200000    -10.4651400000      6.2622700000
H               0.6915600000    -15.9618300000      6.7308800000
H              -3.1172100000    -14.4181500000      3.9020300000
H              -2.5542000000     -0.5834400000      4.5924600000
H               3.3531400000     -0.1151500000      1.6108600000
H               1.3244500000     -0.0582800000      2.9596700000
H               0.9775400000     -0.0788200000     -1.9735200000
H              -1.0522400000     -0.0438800000     -0.6334600000
H              -2.5662900000      0.7907500000      6.6036000000
H              -0.0454800000      3.6769500000      4.6534900000
H              -0.0159700000      2.2973200000      2.6433100000
H              -5.1770800000     -5.9834200000      1.1024200000
H              -5.3349200000     -6.8719400000     -1.1608200000
H              -0.9716300000     -6.9038500000      1.1651800000
H              -1.1398200000     -7.8107100000     -1.0898000000
H              -4.0546200000     -4.1053100000      4.7167600000
H              -5.8921500000     -4.5744600000      6.2438000000
H              -6.4182400000     -8.4380500000      4.4328300000
H              -4.5932800000     -7.9660200000      2.8902500000
H              -1.4636700000      4.2534000000      6.8222300000
H              -2.0577800000      2.8821900000      7.7663100000
H              -0.3221200000      3.1327500000      7.5625500000
H               3.4480100000     -0.5709900000     -2.1005300000
H               3.9269900000      0.9415000000     -1.3301000000
H               4.4250300000     -0.5972800000     -0.6264000000
H              -7.6228500000     -7.8898700000      6.5574700000
H              -7.3314800000     -6.3478100000      7.3727700000
H              -8.4126000000     -6.4209600000      5.9816100000
H              -4.1740600000     -7.5599700000     -3.2758800000
H              -2.4348500000     -7.8818900000     -3.2722400000
H              -3.5589200000     -9.0929100000     -2.6547600000
                                                
  eps=4.88617                                      
  epsinf=4.88617                                   
  RSolv=8.36                                       
  
