%mem=1000MW
%nprocshared=40
#p wB97XD/6-31g** nosymm pop=esp opt td=(triplet,nstates=3,root=2) scf=(MaxCycle=20000) iop(3/107=0001100000,3/108=0001100000) SCRF=(PCM,Solvent=Generic,Read)

 IT-4Cl opt-TDdft

0 1
C          0.17228       -0.32420       -0.21723
C          0.17320       -0.19000        1.17868
C          1.41739       -0.17451        1.83104
C          2.60942       -0.26952        1.11072
C          2.61231       -0.39102       -0.28912
C          1.36766       -0.41886       -0.93527
C         -1.15304       -0.19093        1.98512
C         -2.36947        0.21297        1.14023
C         -3.25200       -0.88880        0.98791
C         -2.75574       -2.03804        1.63816
C         -1.51576       -1.67152        2.27777
S         -4.69483       -0.52370        0.05872
C         -4.11985        1.13325       -0.13727
C         -2.86316        1.34968        0.51405
C         -4.64772        2.23441       -0.78556
C         -3.81332        3.37725       -0.66506
S         -2.35362        3.00539        0.29676
C         -0.80394       -2.59403        3.00411
C         -1.32302       -3.91491        3.09882
C         -2.55388       -4.28630        2.44564
C         -3.26969       -3.36224        1.72538
C         -0.83402       -5.06359        3.76098
C         -1.67125       -6.18325        3.53924
C         -2.86400       -5.79247        2.65632
S          0.55100       -5.39828        4.78396
C          0.00856       -7.07140        4.92283
C         -1.19938       -7.31389        4.20244
S         -1.70067       -8.98130        4.36603
C         -0.29275       -9.34172        5.39149
C          0.51204       -8.18060        5.57640
C         -3.98151        4.70997       -1.09607
C         -4.86802        5.28177       -2.02014
C         -5.58236        4.58193       -3.13228
C         -6.05641        5.65577       -4.05363
C         -5.72600        6.91377       -3.52203
C         -5.04920        6.71105       -2.20934
C         -6.71440        5.50883       -5.26503
C         -7.05287        6.66213       -5.98604
C         -6.72532        7.93124       -5.46856
C         -6.06599        8.06375       -4.23554
Cl        -7.87311        6.47782       -7.52034
Cl        -7.12404        9.39582       -6.33971
O         -5.73107        3.38142       -3.31565
C         -4.74589        7.72214       -1.29499
C         -4.88770        9.11905       -1.56970
N         -4.96760       10.27271       -1.72915
C         -1.13227        0.69938        3.25542
C         -0.44509        1.92474        3.26715
C         -0.49261        2.76761        4.37873
C         -1.23320        2.42802        5.52327
C         -1.92991        1.21072        5.50228
C         -1.88510        0.36446        4.39052
C         -2.83711       -6.47327        1.26133
C         -3.98586       -6.50610        0.45370
C         -3.94687       -7.04537       -0.83378
C         -2.76031       -7.56896       -1.37216
C         -1.61109       -7.51960       -0.56823
C         -1.64639       -6.97929        0.71981
C         -4.16473       -6.04846        3.46252
C         -4.82867       -7.28402        3.38619
C         -5.94986       -7.55034        4.17329
C         -6.45276       -6.59892        5.07625
C         -5.78053       -5.37044        5.15830
C         -4.65703       -5.10007        4.37129
C          0.07146      -10.56333        6.00573
C         -0.45570      -11.85514        6.02166
C         -1.61597      -12.34618        5.23086
C         -1.66451      -13.82080        5.42204
C         -0.63596      -14.21066        6.29615
C          0.09850      -12.99223        6.75021
C         -0.47482      -15.56682        6.58744
C         -1.34901      -16.49927        6.00655
C         -2.38395      -16.08778        5.14253
C         -2.54231      -14.72767        4.84784
C         -2.72712       -8.19384       -2.75555
C         -7.68245       -6.89565        5.91639
O         -2.38672      -11.69290        4.53946
C          1.07835      -12.98736        7.74338
C          1.57761      -14.16649        8.38379
N          2.03977      -15.07818        8.94731
Cl        -1.10783      -18.18949        6.39032
Cl        -3.48591      -17.23503        4.41543
C         -1.25782        3.34051        6.73671
C          3.91359       -0.46337       -1.06835
C          1.68321      -11.81161        8.29375
N          2.21144      -10.90574        8.80668
C         -4.32334        7.48878        0.05383
N         -4.00420        7.38422        1.17181
H         -6.95838        4.52780       -5.64904
H         -5.83435        9.05580       -3.88365
H         -3.27948        5.40451       -0.65128
H         -5.58214        2.25724       -1.31894
H          0.12474       -2.33492        3.49188
H         -4.19522       -3.62203        1.23220
H          1.41336       -8.19255        6.17216
H          0.98551      -10.43944        6.56971
H          0.30134      -15.93352        7.23870
H         -3.32829      -14.39450        4.18402
H         -2.44732       -0.56022        4.42123
H          3.55040       -0.24813        1.65146
H          1.46870       -0.08112        2.90857
H          1.32075       -0.51875       -2.01494
H         -0.76255       -0.36242       -0.76198
H         -2.52011        0.91149        6.36261
H          0.05486        3.70425        4.34897
H          0.14249        2.22823        2.41038
H         -4.92583       -6.11924        0.82674
H         -4.85897       -7.05839       -1.42215
H         -0.72951       -6.95496        1.29510
H         -0.67103       -7.90800       -0.94706
H         -4.16785       -4.14020        4.47955
H         -6.13093       -4.60863        5.84735
H         -6.43563       -8.51637        4.08040
H         -4.48102       -8.04785        2.70316
H         -1.45150        4.37769        6.44947
H         -2.02592        3.03965        7.45152
H         -0.29395        3.32192        7.25675
H          3.76831       -0.91513       -2.05183
H          4.33098        0.53793       -1.22275
H          4.66551       -1.05025       -0.53462
H         -7.60221       -7.87233        6.40182
H         -7.82978       -6.14386        6.69426
H         -8.58503       -6.91372        5.29594
H         -3.49595       -7.77161       -3.40656
H         -1.75761       -8.04780       -3.23767
H         -2.90374       -9.27365       -2.69517

  eps=4.88617
  epsinf=4.88617
  RSolv=8.36
 
