%mem=1000MW
%nprocshared=40
#p wB97XD/6-31g** nosymm pop=esp opt td=(nstates=2,root=1) scf=(MaxCycle=20000) iop(3/107=0001100000,3/108=0001100000) SCRF=(PCM,Solvent=Generic,Read)

 IT-4Cl opt-TDdft

0 1
C          0.17946       -0.31458       -0.19796
C          0.16566       -0.18524        1.19843
C          1.40335       -0.17127        1.86319
C          2.60299       -0.26492        1.15523
C          2.62041       -0.38313       -0.24460
C          1.38230       -0.40814       -0.90359
C         -1.16807       -0.18836        1.99290
C         -2.38055        0.21413        1.14066
C         -3.25721       -0.86117        0.98951
C         -2.75340       -2.03907        1.65795
C         -1.53062       -1.66849        2.28329
S         -4.69627       -0.50396        0.06947
C         -4.12436        1.14988       -0.13743
C         -2.87585        1.36572        0.50506
C         -4.65366        2.25682       -0.79317
C         -3.81479        3.39087       -0.67983
S         -2.35813        3.01391        0.28391
C         -0.80605       -2.60120        3.00948
C         -1.32165       -3.90708        3.09973
C         -2.53957       -4.28045        2.46476
C         -3.26453       -3.34626        1.74007
C         -0.81546       -5.08348        3.76306
C         -1.64766       -6.18527        3.53820
C         -2.85099       -5.78594        2.67192
S          0.57108       -5.41532        4.77184
C          0.03698       -7.09050        4.90684
C         -1.16885       -7.32923        4.19480
S         -1.66773       -8.99934        4.34750
C         -0.25747       -9.36676        5.36556
C          0.54820       -8.20478        5.55411
C         -3.97724        4.72613       -1.11446
C         -4.85243        5.29143       -2.05271
C         -5.53428        4.57733       -3.18454
C         -6.01183        5.64360       -4.11002
C         -5.71751        6.90593       -3.56502
C         -5.05344        6.71361       -2.24708
C         -6.65068        5.48884       -5.33065
C         -7.00751        6.63816       -6.04926
C         -6.71856        7.91111       -5.51780
C         -6.07833        8.05191       -4.27573
Cl        -7.80234        6.44437       -7.59578
Cl        -7.14356        9.37128       -6.38329
O         -5.65321        3.37489       -3.36670
C         -4.76744        7.73115       -1.32514
C         -4.90096        9.12577       -1.60723
N         -4.97452       10.27916       -1.77484
C         -1.15402        0.70086        3.26467
C         -0.47755        1.93211        3.27527
C         -0.52935        2.77467        4.38705
C         -1.26375        2.42860        5.53351
C         -1.94916        1.20486        5.51425
C         -1.89947        0.35874        4.40244
C         -2.84971       -6.46000        1.27335
C         -4.01222       -6.48327        0.48535
C         -3.99903       -7.01549       -0.80568
C         -2.82471       -7.54204       -1.36724
C         -1.66156       -7.50284       -0.58276
C         -1.67117       -6.96978        0.70875
C         -4.14260       -6.04039        3.49400
C         -4.80656       -7.27648        3.42752
C         -5.91928       -7.54210        4.22684
C         -6.41381       -6.58900        5.13265
C         -5.74209       -5.35963        5.20425
C         -4.62713       -5.09000        4.40473
C          0.10719      -10.59113        5.97518
C         -0.42596      -11.88457        5.98937
C         -1.58405      -12.37241        5.17953
C         -1.64764      -13.84340        5.37716
C         -0.63510      -14.23322        6.27181
C          0.10711      -13.02086        6.72047
C         -0.49964      -15.58804        6.58388
C         -1.37768      -16.51611        6.00044
C         -2.39191      -16.10463        5.11297
C         -2.52778      -14.74562        4.80025
C         -2.81880       -8.15919       -2.75456
C         -7.63461       -6.88469        5.98610
O         -2.33639      -11.71157        4.47758
C          1.09433      -13.01569        7.72056
C          1.60512      -14.19512        8.34546
N          2.07812      -15.11102        8.89483
Cl        -1.16735      -18.20371        6.41395
Cl        -3.49604      -17.24739        4.38019
C         -1.29267        3.34017        6.74766
C          3.92958       -0.45544       -1.01059
C          1.68535      -11.84210        8.28392
N          2.20405      -10.93656        8.80913
C         -4.37422        7.49880        0.03092
N         -4.07810        7.39262        1.15555
H         -6.86633        4.50479       -5.72374
H         -5.87802        9.04699       -3.91335
H         -3.28428        5.42307       -0.65931
H         -5.59247        2.27997       -1.31882
H          0.12521       -2.33975        3.49106
H         -4.19108       -3.60911        1.25029
H          1.45170       -8.21891        6.14629
H          1.02130      -10.47170        6.53949
H          0.25831      -15.95728        7.25481
H         -3.29976      -14.41033        4.12118
H         -2.45256       -0.57134        4.43475
H          3.53832       -0.24544        1.70584
H          1.44360       -0.08036        2.94143
H          1.34681       -0.50473       -1.98407
H         -0.74987       -0.35048       -0.75217
H         -2.53368        0.89992        6.37651
H          0.01000        3.71601        4.35581
H          0.10584        2.24031        2.41727
H         -4.94350       -6.09409        0.87731
H         -4.92142       -7.02063       -1.37793
H         -0.74430       -6.95361        1.26796
H         -0.73035       -7.89430       -0.97990
H         -4.13762       -4.12948        4.50519
H         -6.08641       -4.59623        5.89465
H         -6.40519       -8.50876        4.14108
H         -4.46586       -8.04103        2.74171
H         -1.48795        4.37725        6.46115
H         -2.06161        3.03707        7.46070
H         -0.32991        3.32312        7.26989
H          3.79406       -0.90710       -1.99555
H          4.34898        0.54569       -1.16079
H          4.67580       -1.04275       -0.46940
H         -7.54974       -7.86111        6.47128
H         -7.77309       -6.13239        6.76512
H         -8.54403       -6.90259        5.37568
H         -3.59546       -7.72780       -3.39006
H         -1.85640       -8.01669       -3.25180
H         -3.00164       -9.23816       -2.69769

  eps=4.88617
  epsinf=4.88617
  RSolv=8.36
 
