%mem=800MW
%nprocshared=32
%chk=Y6-HSO-scan-140-T1fromS1.chk
%rwf=Y6-HSO-scan-140-T1fromS1.rwf
#p wB97XD/6-31g** td(50-50,nstates=5) 6D 10F nosymm GFInput scf=(MaxCycle=20000) iop(3/107=0016000000,3/108=0016000000) SCRF=(PCM,Solvent=Generic,Read)

 HSO

0 1
C               0.2110300000      0.8947900000      0.2010900000
C               0.2681100000      0.5846200000      1.5657600000
C               1.4614300000      0.8044200000      2.2785600000
C               2.6134700000      1.3032500000      1.6765500000
C               2.5480600000      1.6025500000      0.3219600000
C               1.3564700000      1.4060200000     -0.3989500000
C              -0.7384000000      0.0055600000      2.4892200000
C              -0.1765200000      0.0844700000      3.8480400000
C               1.2632900000      0.4506200000      3.7072100000
C              -0.9148700000      0.0309300000      5.0094800000
C              -0.5946800000      0.0849800000      6.4011700000
S               1.0287600000     -0.0580400000      7.0998700000
C               0.3638200000     -0.0557400000      8.6976300000
C              -1.0356800000      0.0917000000      8.6825800000
C              -1.5991200000      0.1733900000      7.3972000000
S              -1.7585900000      0.1473300000     10.2996000000
C              -0.1633600000     -0.0279200000     10.9874100000
C               0.8599800000     -0.1125400000     10.0193500000
N               2.0800200000     -0.2741100000     10.6391200000
C               1.8468800000     -0.2658800000     12.0148900000
C               0.4329700000     -0.1579800000     12.2456400000
C               2.7365700000     -0.3099100000     13.1147700000
C               2.2210900000     -0.5387400000     14.4432300000
C               0.8002400000     -0.5413800000     14.6775500000
C              -0.0984500000     -0.2783100000     13.5777700000
N               4.1236300000     -0.1922300000     13.1810900000
C               4.4895300000     -0.4114200000     14.4939300000
C               3.3253700000     -0.6334300000     15.2834500000
C               5.6671400000     -0.4338000000     15.2457100000
C               5.4038600000     -0.6803700000     16.6138400000
S               3.6812300000     -0.8872800000     16.9738500000
C               6.5426200000     -0.7213800000     17.4422200000
C               7.7023700000     -0.4816800000     16.6943700000
S               7.3795100000     -0.2630100000     14.9741200000
N              -1.3779700000     -0.2358400000     13.9284000000
S              -1.4308100000     -0.5212400000     15.5578600000
N               0.1892300000     -0.7019300000     15.8444600000
C               9.0982100000     -0.5218900000     17.1544100000
C               9.8306100000      0.5585800000     17.5855500000
C              11.1989100000      0.6342200000     18.0448100000
C              11.4746600000      2.0413900000     18.3927500000
C              10.3195200000      2.8268900000     18.1697100000
C               9.2432700000      1.9474100000     17.6614500000
C              10.2696300000      4.1945000000     18.4065800000
C              11.4217600000      4.8112500000     18.8866100000
C              12.5770200000      4.0535000000     19.1123700000
C              12.6280300000      2.6800300000     18.8748700000
F              13.6772100000      4.6784300000     19.5750800000
F              11.4367500000      6.1392200000     19.1366100000
C              12.1302500000     -0.4397900000     18.1539300000
C              13.4580600000     -0.2946600000     18.6367400000
N              14.5614800000     -0.2364300000     19.0266000000
O               8.1041300000      2.2815500000     17.3647300000
C               6.5276400000     -0.9619600000     18.9296200000
C               4.9935600000      0.5323700000     12.2389300000
C               3.2478200000     -0.8355000000      9.9416700000
C              -3.0778200000      0.3321100000      7.1347700000
O               2.1172000000      0.4883100000      4.5811500000
C              -1.9169500000     -0.6075300000      2.1079500000
C              -2.4019300000     -0.6336900000      0.7596000000
N              -2.8546000000     -0.6833900000     -0.3131700000
F               3.6179400000      2.0909600000     -0.3183400000
F               1.3343600000      1.7253800000     -1.6995500000
C              11.8394000000     -1.7835400000     17.7991200000
N              11.6552100000     -2.9075100000     17.5213200000
C              -2.7539200000     -1.3596500000      2.9964500000
N              -3.4632600000     -2.0117000000      3.6521900000
H              13.5556300000      2.1654900000     19.0710700000
H               9.3704000000      4.7693600000     18.2279200000
H               9.5497200000     -1.5051700000     17.1181000000
H               7.5412800000     -1.0255300000     19.3215900000
H               6.0088400000     -1.8939200000     19.1685200000
H               6.0143100000     -0.1461900000     19.4459400000
H               5.5896800000      1.2515600000     12.7975300000
H               4.3793400000      1.0908400000     11.5394700000
H               5.6547000000     -0.1470200000     11.7042000000
H               2.9033500000     -1.5630300000      9.2086600000
H               3.8734100000     -1.3649000000     10.6527500000
H               3.8207200000     -0.0573500000      9.4399100000
H              -3.2745600000      1.1053100000      6.3907100000
H              -3.6035200000      0.6182100000      8.0450100000
H              -3.5159400000     -0.6037700000      6.7816800000
H              -1.9842800000     -0.0471600000      4.8602800000
H               3.5289600000      1.4589300000      2.2309900000
H              -0.6730200000      0.7759900000     -0.4055200000

  eps=3.36
  epsinf=3.36
  RSolv=7.28
 
