%mem=1000MW
%nprocshared=40
#p wB97XD/6-31g** nosymm pop=esp opt td=(nstates=2,root=1) scf=(MaxCycle=20000) iop(3/107=0001100000,3/108=0001100000) SCRF=(PCM,Solvent=Generic,Read)

 IT4CL

0  1
C        0.016091000     -0.161879000     -0.113774000
C        0.070751000     -0.083853000      1.285596000
C        1.338533000     -0.084928000      1.890398000
C        2.502769000     -0.139151000      1.121498000
C        2.452046000     -0.200309000     -0.280982000
C        1.183391000     -0.214388000     -0.880098000
C       -1.222802000     -0.123896000      2.140039000
C       -2.476567000      0.304280000      1.366510000
C       -3.370128000     -0.778242000      1.236246000
C       -2.844788000     -1.955354000      1.826583000
C       -1.567801000     -1.614195000      2.395589000
S       -4.856892000     -0.386071000      0.401160000
C       -4.282215000      1.269668000      0.215951000
C       -2.996904000      1.468495000      0.790925000
C       -4.825287000      2.403865000     -0.371916000
C       -3.971821000      3.531426000     -0.273394000
S       -2.471102000      3.122408000      0.588694000
C       -0.812918000     -2.567429000      3.038218000
C       -1.336579000     -3.882761000      3.123227000
C       -2.616840000     -4.222087000      2.560268000
C       -3.368940000     -3.270310000      1.912582000
C       -0.808316000     -5.062321000      3.706498000
C       -1.675853000     -6.158181000      3.523789000
C       -2.944201000     -5.722102000      2.779842000
S        0.655216000     -5.444686000      4.586200000
C        0.106567000     -7.114698000      4.717333000
C       -1.158843000     -7.321961000      4.102663000
S       -1.658423000     -8.989573000      4.245490000
C       -0.174200000     -9.394541000      5.137518000
C        0.653955000     -8.254051000      5.291602000
C       -4.373781000      4.779227000     -0.822173000
C       -3.810334000      6.049356000     -0.896089000
C       -2.568241000      6.508244000     -0.215986000
C       -2.517989000      7.985805000     -0.382897000
C       -3.620701000      8.403613000     -1.150107000
C       -4.406275000      7.206895000     -1.559123000
C       -1.581380000      8.871917000      0.125966000
C       -1.752468000     10.240733000     -0.122605000
C       -2.859795000     10.679620000     -0.876124000
C       -3.793369000      9.768412000     -1.394969000
Cl      -0.577522000     11.363047000      0.525743000
Cl      -3.120313000     12.380795000     -1.195562000
O       -1.744818000      5.830184000      0.385356000
C       -5.462514000      7.223471000     -2.474918000
C       -6.003731000      8.414742000     -3.052804000
N       -6.502125000      9.340426000     -3.561329000
C       -1.160518000      0.717787000      3.443322000
C       -0.473355000      1.942480000      3.480977000
C       -0.486305000      2.740368000      4.626237000
C       -1.190149000      2.355137000      5.779606000
C       -1.886258000      1.137923000      5.733480000
C       -1.876840000      0.337086000      4.588104000
C       -3.104522000     -6.384296000      1.387803000
C       -4.339946000     -6.369206000      0.720367000
C       -4.469270000     -6.890275000     -0.568722000
C       -3.372064000     -7.445000000     -1.247349000
C       -2.135883000     -7.444200000     -0.582899000
C       -2.002168000     -6.920847000      0.705626000
C       -4.148648000     -5.939038000      3.737568000
C       -4.873853000     -7.140758000      3.734441000
C       -5.900004000     -7.365803000      4.655924000
C       -6.241388000     -6.406094000      5.621176000
C       -5.504604000     -5.210477000      5.629733000
C       -4.477835000     -4.982726000      4.711795000
C        0.219524000    -10.642919000      5.691062000
C       -0.318289000    -11.926423000      5.703297000
C       -1.516373000    -12.391093000      4.952034000
C       -1.555528000    -13.871276000      5.094823000
C       -0.487730000    -14.287089000      5.910746000
C        0.262360000    -13.087251000      6.374270000
C       -0.313071000    -15.653122000      6.147712000
C       -1.211306000    -16.567177000      5.574286000
C       -2.284576000    -16.130190000      4.771972000
C       -2.456630000    -14.760343000      4.530119000
C       -3.522125000     -8.048741000     -2.632551000
C       -7.377915000     -6.637613000      6.600799000
O       -2.317204000    -11.714952000      4.318803000
C        1.277250000    -13.107213000      7.335746000
C        1.805175000    -14.301697000      7.919414000
N        2.290786000    -15.229816000      8.435831000
Cl      -0.950896000    -18.269229000      5.889196000
Cl      -3.417738000    -17.255508000      4.057829000
C       -1.176612000      3.218453000      7.028644000
C        3.721135000     -0.218934000     -1.114288000
C        1.885484000    -11.944612000      7.906735000
N        2.417939000    -11.047769000      8.432660000
C       -6.103777000      6.057971000     -3.002349000
N       -6.663559000      5.157332000     -3.492114000
H       -0.739387000      8.517350000      0.704729000
H       -4.625257000     10.156703000     -1.959090000
H       -5.348752000      4.686810000     -1.280772000
H       -5.787972000      2.447109000     -0.860305000
H        0.148858000     -2.331684000      3.470029000
H       -4.330200000     -3.505949000      1.479408000
H        1.601691000     -8.291839000      5.808986000
H        1.168985000    -10.542239000      6.198773000
H        0.492910000    -16.039809000      6.749268000
H       -3.272315000    -14.407169000      3.914026000
H       -2.438354000     -0.588397000      4.600514000
H        3.463474000     -0.131432000      1.626550000
H        1.430803000     -0.034853000      2.968146000
H        1.095997000     -0.268578000     -1.960452000
H       -0.938781000     -0.187120000     -0.623596000
H       -2.447956000      0.803638000      6.599893000
H        0.059662000      3.678248000      4.615530000
H        0.086526000      2.280869000      2.619043000
H       -5.217244000     -5.957510000      1.203206000
H       -5.442677000     -6.863820000     -1.047865000
H       -1.024728000     -6.933973000      1.171094000
H       -1.259558000     -7.857354000     -1.072018000
H       -3.933871000     -4.048638000      4.768753000
H       -5.730185000     -4.443744000      6.364010000
H       -6.437069000     -8.307981000      4.617112000
H       -4.651254000     -7.910750000      3.007709000
H       -1.344211000      4.271392000      6.786377000
H       -1.944675000      2.909566000      7.740201000
H       -0.208108000      3.151464000      7.536101000
H        3.558827000     -0.696218000     -2.083090000
H        4.073523000      0.801057000     -1.304568000
H        4.527189000     -0.752304000     -0.604510000
H       -7.539202000     -7.702144000      6.783455000
H       -7.183582000     -6.154104000      7.561023000
H       -8.314978000     -6.224911000      6.209942000
H       -4.359106000     -7.604275000     -3.175373000
H       -2.617512000     -7.909013000     -3.229000000
H       -3.707360000     -9.126591000     -2.565269000

eps=4.88617
epsinf=4.88617
RSolv=8.36
