%mem=1000MW
%nprocshared=40
#p wB97XD/6-31g** nosymm pop=esp opt td=(nstates=2,root=1) scf=(MaxCycle=20000) iop(3/107=0001100000,3/108=0001100000) SCRF=(PCM,Solvent=Generic,Read)

 IT4CL

0  1
C       -0.004054000     -0.142942000     -0.076035000
C        0.047013000     -0.071361000      1.323783000
C        1.313303000     -0.075192000      1.931712000
C        2.479436000     -0.126434000      1.165497000
C        2.432250000     -0.181567000     -0.237362000
C        1.165112000     -0.192429000     -0.839670000
C       -1.248850000     -0.115186000      2.174983000
C       -2.500758000      0.310581000      1.397566000
C       -3.388824000     -0.775088000      1.257575000
C       -2.861198000     -1.952422000      1.845959000
C       -1.590401000     -1.606859000      2.426214000
S       -4.872973000     -0.384473000      0.416788000
C       -4.305442000      1.275473000      0.245260000
C       -3.024232000      1.476315000      0.827938000
C       -4.852609000      2.412974000     -0.332937000
C       -4.000515000      3.541617000     -0.231426000
S       -2.498582000      3.130179000      0.627667000
C       -0.836771000     -2.557775000      3.073552000
C       -1.353218000     -3.876441000      3.148126000
C       -2.624007000     -4.222163000      2.568160000
C       -3.377129000     -3.271339000      1.919910000
C       -0.823780000     -5.054556000      3.733079000
C       -1.679719000     -6.156385000      3.533002000
C       -2.937743000     -5.727986000      2.767239000
S        0.629690000     -5.428387000      4.632518000
C        0.092328000     -7.102899000      4.749840000
C       -1.162297000     -7.318170000      4.115831000
S       -1.651906000     -8.989520000      4.248857000
C       -0.177480000     -9.385645000      5.161046000
C        0.639998000     -8.239489000      5.329125000
C       -4.440895000      4.808566000     -0.704834000
C       -3.859243000      6.065185000     -0.840922000
C       -2.499495000      6.457227000     -0.380244000
C       -2.369594000      7.916363000     -0.630834000
C       -3.554389000      8.392246000     -1.220285000
C       -4.496623000      7.253180000     -1.407553000
C       -1.293629000      8.739317000     -0.337184000
C       -1.397447000     10.105135000     -0.633268000
C       -2.579193000     10.603152000     -1.218014000
C       -3.657316000      9.754759000     -1.515734000
Cl      -0.045199000     11.148567000     -0.255716000
Cl      -2.754392000     12.303264000     -1.596455000
O       -1.640559000      5.742031000      0.120429000
C       -5.735057000      7.351111000     -2.050424000
C       -6.280175000      8.570759000     -2.561969000
N       -6.797073000      9.520499000     -3.003371000
C       -1.191631000      0.724874000      3.479190000
C       -0.504263000      1.949271000      3.521046000
C       -0.521568000      2.745792000      4.667179000
C       -1.230157000      2.359369000      5.817270000
C       -1.926546000      1.142464000      5.766837000
C       -1.912811000      0.343002000      4.620544000
C       -3.057472000     -6.375891000      1.363458000
C       -4.277379000     -6.364986000      0.667688000
C       -4.372320000     -6.872798000     -0.629456000
C       -3.254402000     -7.409659000     -1.288611000
C       -2.034059000     -7.404612000     -0.595781000
C       -1.934739000     -6.894421000      0.701294000
C       -4.162817000     -5.974089000      3.690098000
C       -4.865594000     -7.188426000      3.653029000
C       -5.915486000     -7.441757000      4.539341000
C       -6.304935000     -6.497838000      5.502022000
C       -5.590489000     -5.289436000      5.545182000
C       -4.539441000     -5.033587000      4.662486000
C        0.217964000    -10.631988000      5.717978000
C       -0.312616000    -11.918412000      5.725268000
C       -1.503410000    -12.388482000      4.965944000
C       -1.540145000    -13.868179000      5.112983000
C       -0.477005000    -14.279195000      5.937294000
C        0.267937000    -13.076355000      6.401773000
C       -0.301564000    -15.644088000      6.180247000
C       -1.194359000    -16.561744000      5.604135000
C       -2.262869000    -16.129466000      4.792916000
C       -2.435780000    -14.760836000      4.545204000
C       -3.367559000     -7.999678000     -2.683166000
C       -7.468452000     -6.759042000      6.441626000
O       -2.300895000    -11.716194000      4.324443000
C        1.279048000    -13.092350000      7.367051000
C        1.806484000    -14.284586000      7.955925000
N        2.291684000    -15.210356000      8.476858000
Cl      -0.933381000    -18.262150000      5.927075000
Cl      -3.389166000    -17.259162000      4.074997000
C       -1.221155000      3.221257000      7.067327000
C        3.703278000     -0.197335000     -1.067758000
C        1.885032000    -11.927770000      7.936523000
N        2.415930000    -11.029452000      8.461449000
C       -6.616295000      6.255978000     -2.317069000
N       -7.387819000      5.419658000     -2.581985000
H       -0.395965000      8.338437000      0.113320000
H       -4.537399000     10.189097000     -1.960006000
H       -5.452623000      4.731132000     -1.076711000
H       -5.819136000      2.459214000     -0.813361000
H        0.119420000     -2.317958000      3.515379000
H       -4.332635000     -3.511021000      1.476455000
H        1.580620000     -8.271212000      5.859772000
H        1.161519000    -10.525715000      6.235379000
H        0.500688000    -16.027218000      6.789020000
H       -3.247822000    -14.411249000      3.922313000
H       -2.474752000     -0.582348000      4.629383000
H        3.438884000     -0.121199000      1.672970000
H        1.402927000     -0.029674000      3.009906000
H        1.080386000     -0.241580000     -1.920488000
H       -0.957580000     -0.165272000     -0.588447000
H       -2.491982000      0.807425000      6.630515000
H        0.024777000      3.683505000      4.659862000
H        0.059064000      2.288419000      2.661638000
H       -5.169361000     -5.967174000      1.135030000
H       -5.335031000     -6.850636000     -1.130041000
H       -0.967891000     -6.903633000      1.188375000
H       -1.142939000     -7.804288000     -1.069142000
H       -4.014528000     -4.090396000      4.744943000
H       -5.853420000     -4.534005000      6.278713000
H       -6.433962000     -8.392807000      4.473827000
H       -4.607992000     -7.945918000      2.924843000
H       -1.390146000      4.274168000      6.825839000
H       -1.990294000      2.910207000      7.776768000
H       -0.253684000      3.155555000      7.576896000
H        3.543703000     -0.673460000     -2.037607000
H        4.054708000      0.823388000     -1.255877000
H        4.508876000     -0.730415000     -0.556994000
H       -7.618313000     -7.827967000      6.607306000
H       -7.312702000     -6.283665000      7.412947000
H       -8.399038000     -6.356495000      6.025624000
H       -4.184260000     -7.543420000     -3.246818000
H       -2.444322000     -7.862120000     -3.250831000
H       -3.563529000     -9.076520000     -2.631507000

eps=4.88617
epsinf=4.88617
RSolv=8.36
