%mem=1000MW
%nprocshared=40
#p wB97XD/6-31g** nosymm pop=esp opt td=(nstates=2,root=1) scf=(MaxCycle=20000) iop(3/107=0001100000,3/108=0001100000) SCRF=(PCM,Solvent=Generic,Read)

 IT4CL

0  1
C        0.370454000      0.378548000      0.953094000
C        0.229684000      0.265431000      2.344628000
C        1.400052000      0.200967000      3.117575000
C        2.660926000      0.270497000      2.520867000
C        2.806100000      0.405086000      1.131059000
C        1.633004000      0.452011000      0.360772000
C       -1.164021000      0.101939000      3.001245000
C       -2.321025000      0.603163000      2.127596000
C       -3.187827000     -0.460844000      1.797129000
C       -2.709073000     -1.693971000      2.318459000
C       -1.506178000     -1.409077000      3.043866000
S       -4.574153000      0.008817000      0.849593000
C       -4.000224000      1.671058000      0.882459000
C       -2.782533000      1.811828000      1.600820000
C       -4.503257000      2.865763000      0.347804000
C       -3.649239000      3.938995000      0.589168000
S       -2.262882000      3.480277000      1.577715000
C       -0.803275000     -2.430381000      3.651524000
C       -1.315722000     -3.739188000      3.537617000
C       -2.522350000     -4.024173000      2.820906000
C       -3.221018000     -3.008085000      2.206036000
C       -0.825888000     -4.988428000      4.044354000
C       -1.648339000     -6.045487000      3.655986000
C       -2.839412000     -5.541864000      2.831618000
S        0.541820000     -5.450178000      5.026780000
C        0.010267000     -7.122665000      4.925267000
C       -1.173305000     -7.272934000      4.165341000
S       -1.664092000     -8.938027000      4.078500000
C       -0.279233000     -9.429632000      5.073364000
C        0.509912000     -8.322647000      5.435455000
C       -3.913047000      5.362367000      0.303580000
C       -3.773127000      5.981221000     -0.909266000
C       -3.180163000      5.283944000     -2.114973000
C       -3.329876000      6.229676000     -3.247336000
C       -3.911553000      7.426893000     -2.765047000
C       -4.156905000      7.322344000     -1.319330000
C       -2.974103000      6.041250000     -4.572189000
C       -3.204812000      7.079011000     -5.487046000
C       -3.782066000      8.279829000     -5.029931000
C       -4.131870000      8.465246000     -3.684705000
Cl      -2.760321000      6.835250000     -7.168786000
Cl      -4.090708000      9.607529000     -6.137464000
O       -2.680006000      4.169294000     -2.150675000
C       -4.668530000      8.356450000     -0.481223000
C       -5.196831000      9.583980000     -0.965643000
N       -5.652917000     10.608150000     -1.306788000
C       -1.304389000      0.787320000      4.390020000
C       -0.673035000      2.013883000      4.655651000
C       -0.867724000      2.673784000      5.870007000
C       -1.704242000      2.143612000      6.866863000
C       -2.341800000      0.924622000      6.592544000
C       -2.150632000      0.261322000      5.377322000
C       -2.823260000     -6.032917000      1.359848000
C       -3.979499000     -5.963086000      0.565572000
C       -3.946125000     -6.307706000     -0.786929000
C       -2.758912000     -6.734440000     -1.404292000
C       -1.604425000     -6.794724000     -0.608927000
C       -1.633282000     -6.447641000      0.744430000
C       -4.140877000     -5.885862000      3.606857000
C       -4.810378000     -7.100626000      3.390053000
C       -5.934957000     -7.448031000      4.142896000
C       -6.433962000     -6.602070000      5.145732000
C       -5.752938000     -5.394898000      5.369357000
C       -4.628029000     -5.044504000      4.619381000
C        0.070039000    -10.736296000      5.537560000
C       -0.442546000    -12.002545000      5.351385000
C       -1.533199000    -12.393313000      4.412731000
C       -1.526947000    -13.878655000      4.360877000
C       -0.554361000    -14.379148000      5.243639000
C        0.090956000    -13.238910000      5.951078000
C       -0.362094000    -15.761084000      5.330025000
C       -1.150171000    -16.609118000      4.540269000
C       -2.131161000    -16.089305000      3.666561000
C       -2.319467000    -14.706065000      3.576746000
C       -2.733530000     -7.139055000     -2.867562000
C       -7.676569000     -6.965304000      5.939016000
O       -2.279922000    -11.657643000      3.783480000
C        0.956275000    -13.356547000      7.026180000
C        1.435518000    -14.606893000      7.540139000
N        1.872140000    -15.580406000      8.010212000
Cl      -0.878885000    -18.330459000      4.670850000
Cl      -3.123348000    -17.133906000      2.679963000
C       -1.891145000      2.859176000      8.192753000
C        4.174413000      0.529811000      0.485124000
C        1.449246000    -12.253917000      7.800740000
N        1.875904000    -11.413787000      8.487804000
C       -4.688332000      8.291760000      0.938561000
N       -4.720093000      8.300875000      2.110511000
H       -2.525066000      5.112300000     -4.897033000
H       -4.566553000      9.407607000     -3.393030000
H       -4.412740000      5.878151000      1.114878000
H       -5.421154000      2.965452000     -0.211327000
H        0.109357000     -2.241089000      4.197250000
H       -4.131924000     -3.197476000      1.657538000
H        1.397600000     -8.411638000      6.045051000
H        0.954357000    -10.684486000      6.158535000
H        0.377107000    -16.205607000      5.975670000
H       -3.062780000    -14.292223000      2.909368000
H       -2.674500000     -0.671297000      5.212491000
H        3.541404000      0.225772000      3.153862000
H        1.338611000      0.106348000      4.194473000
H        1.699797000      0.551799000     -0.717666000
H       -0.502432000      0.410445000      0.313015000
H       -3.002204000      0.481958000      7.331095000
H       -0.360844000      3.618473000      6.037790000
H       -0.016791000      2.461129000      3.920736000
H       -4.919255000     -5.643357000      0.997866000
H       -4.862572000     -6.243083000     -1.364775000
H       -0.711167000     -6.496448000      1.309989000
H       -0.664433000     -7.115217000     -1.046444000
H       -4.134937000     -4.106001000      4.837944000
H       -6.100593000     -4.712644000      6.138492000
H       -6.424998000     -8.395186000      3.942060000
H       -4.467474000     -7.785282000      2.625361000
H       -2.051703000      3.930307000      8.044817000
H       -2.743999000      2.462810000      8.746822000
H       -1.002576000      2.746862000      8.823405000
H        4.215472000      0.000431000     -0.470009000
H        4.410932000      1.580903000      0.286297000
H        4.960969000      0.130949000      1.128963000
H       -7.774298000     -8.046518000      6.059587000
H       -7.662772000     -6.513260000      6.933157000
H       -8.578880000     -6.609092000      5.429397000
H       -3.460531000     -6.571058000     -3.452591000
H       -1.747325000     -6.981926000     -3.310045000
H       -2.978295000     -8.201039000     -2.981329000

eps=4.88617
epsinf=4.88617
RSolv=8.36
