%mem=1000MW
%nprocshared=40
#p wB97XD/6-31g** nosymm pop=esp opt td=(nstates=2,root=1) scf=(MaxCycle=20000) iop(3/107=0001100000,3/108=0001100000) SCRF=(PCM,Solvent=Generic,Read)

 IT4CL

0  1
C        0.512418000      0.350112000      0.899183000
C        0.354646000      0.223283000      2.287695000
C        1.515930000      0.138508000      3.072527000
C        2.784160000      0.201358000      2.490742000
C        2.946248000      0.348988000      1.104110000
C        1.782280000      0.416316000      0.321710000
C       -1.048560000      0.068734000      2.927275000
C       -2.188783000      0.574544000      2.034942000
C       -3.042203000     -0.485895000      1.672681000
C       -2.579379000     -1.722261000      2.201781000
C       -1.397616000     -1.440980000      2.964849000
S       -4.409097000     -0.004516000      0.699523000
C       -3.845389000      1.659061000      0.774313000
C       -2.646755000      1.792422000      1.517367000
C       -4.353274000      2.866650000      0.260917000
C       -3.520922000      3.938638000      0.552355000
S       -2.141723000      3.465338000      1.545075000
C       -0.723539000     -2.461220000      3.603119000
C       -1.243181000     -3.768292000      3.485003000
C       -2.424066000     -4.050877000      2.724529000
C       -3.093351000     -3.034563000      2.077883000
C       -0.792266000     -5.010989000      4.033860000
C       -1.613805000     -6.067573000      3.633508000
C       -2.756814000     -5.565539000      2.743033000
S        0.524980000     -5.470159000      5.084790000
C       -0.027435000     -7.137187000      4.997435000
C       -1.180889000     -7.287552000      4.190049000
S       -1.694678000     -8.947712000      4.123283000
C       -0.357476000     -9.436288000      5.183460000
C        0.433213000     -8.330692000      5.552755000
C       -3.795853000      5.373091000      0.331509000
C       -3.831346000      6.024209000     -0.866563000
C       -3.393928000      5.384670000     -2.170459000
C       -3.691742000      6.378300000     -3.228271000
C       -4.212729000      7.549357000     -2.624778000
C       -4.272393000      7.385580000     -1.168876000
C       -3.505800000      6.250913000     -4.595394000
C       -3.851618000      7.325460000     -5.426228000
C       -4.369725000      8.502991000     -4.847480000
C       -4.550929000      8.625903000     -3.464403000
Cl      -3.622362000      7.161366000     -7.158781000
Cl      -4.811133000      9.876579000     -5.847765000
O       -2.886177000      4.283690000     -2.319520000
C       -4.681807000      8.373826000     -0.231654000
C       -5.248285000      9.627989000     -0.593134000
N       -5.728576000     10.670723000     -0.825940000
C       -1.202293000      0.754888000      4.313525000
C       -0.550837000      1.966515000      4.597561000
C       -0.757503000      2.626800000      5.809942000
C       -1.626559000      2.111556000      6.786343000
C       -2.284716000      0.907748000      6.493275000
C       -2.081697000      0.244572000      5.280242000
C       -2.669048000     -6.082775000      1.282732000
C       -3.774109000     -5.992458000      0.420181000
C       -3.673004000     -6.364982000     -0.921364000
C       -2.466412000     -6.841620000     -1.459722000
C       -1.362886000     -6.921837000     -0.596830000
C       -1.459476000     -6.546916000      0.745841000
C       -4.099533000     -5.882759000      3.455896000
C       -4.786701000     -7.081118000      3.206237000
C       -5.951982000     -7.402694000      3.906934000
C       -6.475309000     -6.546756000      4.888768000
C       -5.776085000     -5.356897000      5.146727000
C       -4.611023000     -5.032117000      4.448619000
C       -0.040790000    -10.736101000      5.684412000
C       -0.561879000    -12.001517000      5.505969000
C       -1.636656000    -12.394903000      4.551139000
C       -1.655919000    -13.880894000      4.532030000
C       -0.708432000    -14.377454000      5.443807000
C       -0.057559000    -13.232216000      6.138824000
C       -0.540466000    -15.760053000      5.562996000
C       -1.326976000    -16.612195000      4.775756000
C       -2.283150000    -16.095961000      3.873385000
C       -2.447380000    -14.711938000      3.750958000
C       -2.369042000     -7.277341000     -2.910907000
C       -7.760425000     -6.882610000      5.624100000
O       -2.356961000    -11.660869000      3.889559000
C        0.793548000    -13.343253000      7.227191000
C        1.249862000    -14.590725000      7.767546000
N        1.669156000    -15.561334000      8.259268000
Cl      -1.084631000    -18.334629000      4.946324000
Cl      -3.273902000    -17.145835000      2.890633000
C       -1.827125000      2.825983000      8.110878000
C        4.322609000      0.465572000      0.473871000
C        1.294978000    -12.235462000      7.988250000
N        1.727636000    -11.390529000      8.665850000
C       -4.556868000      8.242144000      1.178988000
N       -4.470890000      8.201798000      2.347228000
H       -3.098898000      5.340441000     -5.014169000
H       -4.949758000      9.550190000     -3.079030000
H       -4.134748000      5.884393000      1.224288000
H       -5.266511000      2.971408000     -0.304508000
H        0.168392000     -2.273655000      4.182696000
H       -3.987068000     -3.221375000      1.501018000
H        1.293850000     -8.417829000      6.200244000
H        0.822771000    -10.682126000      6.333602000
H        0.178729000    -16.202361000      6.232299000
H       -3.171762000    -14.300720000      3.061451000
H       -2.621990000     -0.675764000      5.099637000
H        3.656915000      0.140808000      3.133063000
H        1.441616000      0.032955000      4.147624000
H        1.862248000      0.526286000     -0.754873000
H       -0.352807000      0.397984000      0.249872000
H       -2.970699000      0.477542000      7.215772000
H       -0.234681000      3.560146000      5.991902000
H        0.130343000      2.401800000      3.878273000
H       -4.727119000     -5.634961000      0.789537000
H       -4.551019000     -6.283152000     -1.554112000
H       -0.574597000     -6.614197000      1.366206000
H       -0.410016000     -7.280710000     -0.972568000
H       -4.105329000     -4.106502000      4.692274000
H       -6.140753000     -4.668470000      5.902401000
H       -6.454691000     -8.337743000      3.682052000
H       -4.424358000     -7.773065000      2.457183000
H       -1.956982000      3.901496000      7.964800000
H       -2.703334000      2.449108000      8.641722000
H       -0.957912000      2.687875000      8.763084000
H        4.371196000     -0.063888000     -0.480936000
H        4.567911000      1.515186000      0.277836000
H        5.099350000      0.061665000      1.126392000
H       -7.875922000     -7.960602000      5.758001000
H       -7.792693000     -6.413562000      6.609786000
H       -8.631817000     -6.526945000      5.062815000
H       -3.058464000     -6.714738000     -3.544478000
H       -1.359451000     -7.138545000     -3.304197000
H       -2.618376000     -8.339203000     -3.015477000

eps=4.88617
epsinf=4.88617
RSolv=8.36
