%mem=1000MW
%nprocshared=40
#p wB97XD/6-31g** nosymm pop=esp opt td=(nstates=2,root=1) scf=(MaxCycle=20000) iop(3/107=0001100000,3/108=0001100000) SCRF=(PCM,Solvent=Generic,Read)

 IT4CL

0  1
C        0.446235000      0.371055000      0.950584000
C        0.286971000      0.254237000      2.339846000
C        1.448048000      0.188051000      3.126805000
C        2.716625000      0.258906000      2.546576000
C        2.879714000      0.395989000      1.158986000
C        1.716335000      0.444932000      0.374321000
C       -1.116008000      0.088899000      2.976694000
C       -2.259132000      0.585552000      2.082216000
C       -3.104145000     -0.481464000      1.721646000
C       -2.636848000     -1.712048000      2.252206000
C       -1.452139000     -1.424798000      3.014340000
S       -4.472815000     -0.009821000      0.741951000
C       -3.912142000      1.656679000      0.800836000
C       -2.724059000      1.799730000      1.561732000
C       -4.405714000      2.847539000      0.250263000
C       -3.607951000      3.941846000      0.582249000
S       -2.215322000      3.470965000      1.576455000
C       -0.766868000     -2.438299000      3.645070000
C       -1.273105000     -3.755484000      3.524288000
C       -2.462324000     -4.041504000      2.770461000
C       -3.142732000     -3.029884000      2.131887000
C       -0.803554000     -4.990302000      4.050391000
C       -1.618246000     -6.061409000      3.645318000
C       -2.783971000     -5.558671000      2.784816000
S        0.536386000     -5.451600000      5.075337000
C        0.004247000     -7.127481000      4.968132000
C       -1.161764000     -7.278094000      4.171474000
S       -1.647680000     -8.950447000      4.079135000
C       -0.290413000     -9.437560000      5.118926000
C        0.489001000     -8.318546000      5.496432000
C       -3.785277000      5.339170000      0.252052000
C       -4.011416000      5.903619000     -0.984766000
C       -3.881253000      5.195216000     -2.307577000
C       -3.831598000      6.272314000     -3.335684000
C       -4.010805000      7.525406000     -2.714693000
C       -4.212417000      7.324351000     -1.262621000
C       -3.642496000      6.134688000     -4.701366000
C       -3.614859000      7.291282000     -5.494098000
C       -3.783204000      8.553634000     -4.890013000
C       -3.984371000      8.679152000     -3.506867000
Cl      -3.366099000      7.119027000     -7.218291000
Cl      -3.747766000     10.022113000     -5.843714000
O       -3.791710000      3.996735000     -2.521704000
C       -4.607857000      8.305191000     -0.342188000
C       -4.738644000      9.692198000     -0.656707000
N       -4.857150000     10.839369000     -0.845872000
C       -1.276568000      0.775481000      4.361463000
C       -0.644583000      1.998800000      4.639811000
C       -0.857868000      2.659892000      5.850833000
C       -1.715373000      2.134133000      6.831530000
C       -2.354721000      0.918622000      6.544342000
C       -2.144186000      0.254403000      5.333284000
C       -2.733360000     -6.062961000      1.319230000
C       -3.869017000     -5.995506000      0.495351000
C       -3.803751000     -6.354230000     -0.852189000
C       -2.603715000     -6.793877000     -1.434881000
C       -1.469595000     -6.851193000     -0.610500000
C       -1.530363000     -6.489632000      0.737983000
C       -4.104588000     -5.890904000      3.531606000
C       -4.773545000     -7.105443000      3.310929000
C       -5.916421000     -7.441596000      4.040577000
C       -6.435337000     -6.584263000      5.023771000
C       -5.755295000     -5.377462000      5.251662000
C       -4.611969000     -5.038305000      4.524716000
C        0.045825000    -10.735270000      5.596059000
C       -0.465464000    -12.012349000      5.407221000
C       -1.538276000    -12.403582000      4.452447000
C       -1.573211000    -13.890342000      4.443991000
C       -0.627170000    -14.384328000      5.359736000
C        0.041102000    -13.235848000      6.032477000
C       -0.480065000    -15.767364000      5.498498000
C       -1.279990000    -16.620187000      4.722774000
C       -2.228582000    -16.106117000      3.814785000
C       -2.376231000    -14.719912000      3.675978000
C       -2.544580000     -7.214844000     -2.892569000
C       -7.696345000     -6.936913000      5.792332000
O       -2.252215000    -11.670166000      3.780807000
C        0.928231000    -13.349119000      7.102911000
C        1.408347000    -14.594500000      7.620030000
N        1.850765000    -15.566500000      8.091459000
Cl      -1.059769000    -18.344908000      4.919641000
Cl      -3.233647000    -17.156287000      2.843098000
C       -1.922892000      2.847583000      8.155604000
C        4.256325000      0.519658000      0.530412000
C        1.443700000    -12.247387000      7.858532000
N        1.892063000    -11.407091000      8.533993000
C       -4.993359000      8.026997000      1.006183000
N       -5.338943000      7.871123000      2.111812000
H       -3.516195000      5.158024000     -5.148192000
H       -4.104318000      9.667048000     -3.092876000
H       -3.593146000      6.018830000      1.074454000
H       -5.306815000      2.937070000     -0.334512000
H        0.127548000     -2.244804000      4.219130000
H       -4.037866000     -3.223259000      1.559018000
H        1.358382000     -8.404005000      6.132263000
H        0.914090000    -10.681614000      6.238585000
H        0.230910000    -16.211169000      6.175463000
H       -3.098042000    -14.308387000      2.983752000
H       -2.669177000     -0.675560000      5.157492000
H        3.588882000      0.211841000      3.190805000
H        1.372900000      0.089497000      4.202496000
H        1.797138000      0.544953000     -0.703286000
H       -0.419156000      0.403132000      0.300394000
H       -3.031435000      0.479775000      7.270425000
H       -0.348875000      3.601818000      6.028406000
H        0.026912000      2.443009000      3.916768000
H       -4.817485000     -5.666007000      0.900456000
H       -4.704906000     -6.291275000     -1.453888000
H       -0.623378000     -6.537448000      1.327619000
H       -0.520815000     -7.181211000     -1.021288000
H       -4.119890000     -4.099986000      4.745953000
H       -6.117530000     -4.687094000      6.006777000
H       -6.404977000     -8.389155000      3.838009000
H       -4.414339000     -7.799011000      2.561916000
H       -2.035705000      3.925326000      8.012271000
H       -2.811244000      2.481169000      8.673630000
H       -1.064826000      2.694222000      8.819265000
H        4.309093000     -0.009650000     -0.424232000
H        4.497368000      1.570459000      0.334861000
H        5.034095000      0.119400000      1.184013000
H       -7.795691000     -8.016387000      5.926797000
H       -7.707255000     -6.470157000      6.779675000
H       -8.586771000     -6.590092000      5.255821000
H       -3.253497000     -6.648967000     -3.501491000
H       -1.546867000     -7.068152000     -3.312344000
H       -2.792786000     -8.276613000     -3.000937000

eps=4.88617
epsinf=4.88617
RSolv=8.36
