%mem=1000MW
%nprocshared=40
#p wB97XD/6-31g** nosymm pop=esp opt td=(nstates=2,root=1) scf=(MaxCycle=20000) iop(3/107=0001100000,3/108=0001100000) SCRF=(PCM,Solvent=Generic,Read)

 IT4CL

0  1
C        0.538454000      0.345802000      0.925585000
C        0.366630000      0.223392000      2.312829000
C        1.520657000      0.143694000      3.108966000
C        2.794522000      0.207456000      2.539632000
C        2.970191000      0.350336000      1.154104000
C        1.813825000      0.412234000      0.360089000
C       -1.043108000      0.067648000      2.937432000
C       -2.174932000      0.568283000      2.030887000
C       -3.018388000     -0.496771000      1.658814000
C       -2.559687000     -1.728885000      2.191589000
C       -1.387488000     -1.444154000      2.974859000
S       -4.383505000     -0.019411000      0.675861000
C       -3.822957000      1.648142000      0.747577000
C       -2.635049000      1.784751000      1.514755000
C       -4.314582000      2.838192000      0.204794000
C       -3.516233000      3.937028000      0.546618000
S       -2.122824000      3.452192000      1.541967000
C       -0.723583000     -2.456268000      3.628827000
C       -1.235866000     -3.772069000      3.507511000
C       -2.403653000     -4.057925000      2.718791000
C       -3.065560000     -3.046422000      2.061888000
C       -0.797886000     -5.000648000      4.068379000
C       -1.607798000     -6.073002000      3.650150000
C       -2.730027000     -5.574452000      2.731254000
S        0.496476000     -5.458119000      5.153026000
C       -0.047054000     -7.131289000      5.050673000
C       -1.184062000     -7.283814000      4.211955000
S       -1.680063000     -8.955191000      4.126597000
C       -0.363202000     -9.438082000      5.219768000
C        0.409687000     -8.317427000      5.611397000
C       -3.665078000      5.327717000      0.230143000
C       -4.061482000      5.928410000     -0.953105000
C       -4.220017000      5.252382000     -2.283975000
C       -4.267874000      6.350707000     -3.291156000
C       -4.225901000      7.595869000     -2.634778000
C       -4.192866000      7.366429000     -1.169304000
C       -4.339883000      6.236471000     -4.670448000
C       -4.355415000      7.409209000     -5.439120000
C       -4.297894000      8.663996000     -4.799630000
C       -4.236828000      8.765332000     -3.400845000
Cl      -4.442954000      7.266678000     -7.180910000
Cl      -4.299848000     10.150451000     -5.724217000
O       -4.266051000      4.056900000     -2.531910000
C       -4.351394000      8.348620000     -0.186806000
C       -4.415808000      9.750379000     -0.459049000
N       -4.466692000     10.907576000     -0.609695000
C       -1.212478000      0.757382000      4.319380000
C       -0.565047000      1.969863000      4.608642000
C       -0.786512000      2.634078000      5.816626000
C       -1.667533000      2.121817000      6.783319000
C       -2.322199000      0.916998000      6.485117000
C       -2.103840000      0.250068000      5.277183000
C       -2.604061000     -6.091303000      1.274167000
C       -3.686283000     -6.005661000      0.382441000
C       -3.547259000     -6.376123000     -0.956297000
C       -2.324337000     -6.845973000     -1.463141000
C       -1.243916000     -6.922149000     -0.571155000
C       -1.378480000     -6.549003000      0.768577000
C       -4.087453000     -5.894158000      3.413144000
C       -4.773439000     -7.089160000      3.144293000
C       -5.954369000     -7.408979000      3.818845000
C       -6.495358000     -6.555132000      4.793230000
C       -5.796756000     -5.369700000      5.071932000
C       -4.616050000     -5.046797000      4.399929000
C       -0.046617000    -10.732012000      5.717192000
C       -0.554084000    -12.011650000      5.521234000
C       -1.608455000    -12.404506000      4.547310000
C       -1.653868000    -13.891067000      4.550738000
C       -0.727169000    -14.382241000      5.487824000
C       -0.063998000    -13.231710000      6.161950000
C       -0.591473000    -15.764972000      5.640730000
C       -1.382873000    -16.619627000      4.857678000
C       -2.312149000    -16.108192000      3.929231000
C       -2.448597000    -14.721909000      3.776162000
C       -2.185651000     -7.279295000     -2.911679000
C       -7.797732000     -6.889317000      5.498198000
O       -2.304609000    -11.672475000      3.855280000
C        0.812060000    -13.343501000      7.244520000
C        1.283460000    -14.587728000      7.770625000
N        1.719243000    -15.559297000      8.249879000
Cl      -1.176189000    -18.344298000      5.072954000
Cl      -3.307829000    -17.160572000      2.949406000
C       -1.883856000      2.837110000      8.104978000
C        4.352804000      0.466295000      0.537344000
C        1.323490000    -12.241795000      8.001626000
N        1.768706000    -11.401094000      8.679254000
C       -4.539086000      8.068358000      1.204025000
N       -4.719998000      7.914473000      2.347778000
H       -4.383426000      5.265791000     -5.145113000
H       -4.188968000      9.747399000     -2.959141000
H       -3.281113000      5.994059000      0.993934000
H       -5.215098000      2.930305000     -0.378885000
H        0.155801000     -2.263385000      4.225831000
H       -3.948469000     -3.238289000      1.469897000
H        1.254920000     -8.400192000      6.279318000
H        0.800889000    -10.675599000      6.386423000
H        0.104138000    -16.207452000      6.334304000
H       -3.156156000    -14.311892000      3.068458000
H       -2.641092000     -0.671196000      5.092333000
H        3.660948000      0.150145000      3.190836000
H        1.435874000      0.039884000      4.183433000
H        1.904455000      0.516572000     -0.716330000
H       -0.321303000      0.387653000      0.268527000
H       -3.016981000      0.488966000      7.200557000
H       -0.265326000      3.567658000      6.002681000
H        0.125746000      2.402323000      3.896704000
H       -4.650767000     -5.653425000      0.726397000
H       -4.408240000     -6.298206000     -1.612672000
H       -0.510796000     -6.613469000      1.412936000
H       -0.279483000     -7.276198000     -0.921171000
H       -4.110744000     -4.125167000      4.659086000
H       -6.173780000     -4.683909000      5.823985000
H       -6.455656000     -8.341295000      3.579794000
H       -4.396871000     -7.780177000      2.401454000
H       -1.967093000      3.917657000      7.962826000
H       -2.791213000      2.491518000      8.604100000
H       -1.043607000      2.660569000      8.785541000
H        4.410335000     -0.062135000     -0.417531000
H        4.601961000      1.515829000      0.345160000
H        5.122550000      0.060411000      1.196924000
H       -7.911424000     -7.966497000      5.640660000
H       -7.858651000     -6.410112000      6.477589000
H       -8.655707000     -6.544713000      4.909800000
H       -2.863201000     -6.721930000     -3.562510000
H       -1.167289000     -7.131421000     -3.278258000
H       -2.422869000     -8.343175000     -3.023653000

eps=4.88617
epsinf=4.88617
RSolv=8.36
