%mem=1000MW
%nprocshared=40
#p wB97XD/6-31g** nosymm pop=esp opt td=(nstates=2,root=1) scf=(MaxCycle=20000) iop(3/107=0001100000,3/108=0001100000) SCRF=(PCM,Solvent=Generic,Read)

 IT4CL

0  1
C        0.605114000      0.316850000      0.963785000
C        0.410153000      0.207777000      2.348988000
C        1.550582000      0.129712000      3.164495000
C        2.833766000      0.182274000      2.615117000
C        3.032662000      0.311868000      1.231396000
C        1.889690000      0.372074000      0.418174000
C       -1.010778000      0.063918000      2.951551000
C       -2.122803000      0.565545000      2.021187000
C       -2.961711000     -0.498701000      1.635311000
C       -2.520171000     -1.729555000      2.183860000
C       -1.363090000     -1.446098000      2.990163000
S       -4.299049000     -0.024055000      0.613490000
C       -3.731553000      1.641827000      0.684997000
C       -2.564529000      1.780127000      1.486363000
C       -4.199170000      2.824043000      0.112709000
C       -3.401380000      3.926893000      0.460535000
S       -2.048436000      3.444729000      1.516809000
C       -0.715337000     -2.458196000      3.659716000
C       -1.228576000     -3.773505000      3.530947000
C       -2.382723000     -4.057336000      2.720725000
C       -3.028378000     -3.045795000      2.048529000
C       -0.802865000     -5.002192000      4.098693000
C       -1.606971000     -6.074236000      3.664867000
C       -2.714861000     -5.572448000      2.730500000
S        0.473433000     -5.463469000      5.203277000
C       -0.068295000     -7.136654000      5.086321000
C       -1.192345000     -7.286145000      4.229003000
S       -1.685589000     -8.958145000      4.128854000
C       -0.385351000     -9.444752000      5.240201000
C        0.380621000     -8.324411000      5.648673000
C       -3.524856000      5.309933000      0.133597000
C       -4.040342000      5.924220000     -1.001356000
C       -4.338036000      5.265916000     -2.313498000
C       -4.462617000      6.374080000     -3.303604000
C       -4.335459000      7.612019000     -2.646408000
C       -4.163540000      7.365295000     -1.191443000
C       -4.664538000      6.273169000     -4.671055000
C       -4.728401000      7.452881000     -5.426312000
C       -4.588859000      8.700833000     -4.786505000
C       -4.396645000      8.788230000     -3.398294000
Cl      -4.975880000      7.327212000     -7.153610000
Cl      -4.647232000     10.195126000     -5.696221000
O       -4.427823000      4.073811000     -2.570104000
C       -4.210934000      8.339430000     -0.190817000
C       -4.283847000      9.744919000     -0.443048000
N       -4.335183000     10.904019000     -0.576318000
C       -1.197812000      0.762391000      4.326366000
C       -0.551602000      1.975436000      4.616250000
C       -0.787906000      2.648512000      5.816416000
C       -1.682861000      2.144443000      6.774603000
C       -2.335970000      0.938966000      6.475759000
C       -2.103028000      0.263296000      5.275368000
C       -2.574102000     -6.091852000      1.276041000
C       -3.646548000     -6.007109000      0.372519000
C       -3.492832000     -6.379048000     -0.964226000
C       -2.264514000     -6.849497000     -1.457286000
C       -1.193861000     -6.924882000     -0.553435000
C       -1.343077000     -6.550128000      0.784200000
C       -4.081538000     -5.884951000      3.397599000
C       -4.770034000     -7.077290000      3.123320000
C       -5.959897000     -7.390284000      3.785226000
C       -6.507720000     -6.532149000      4.752051000
C       -5.806621000     -5.349580000      5.036528000
C       -4.617051000     -5.033466000      4.377118000
C       -0.074064000    -10.740372000      5.735224000
C       -0.577821000    -12.020337000      5.526831000
C       -1.622946000    -12.408559000      4.541268000
C       -1.672978000    -13.894962000      4.541539000
C       -0.755295000    -14.390246000      5.485364000
C       -0.094356000    -13.242663000      6.166771000
C       -0.625209000    -15.773628000      5.637002000
C       -1.413199000    -16.624607000      4.846285000
C       -2.333592000    -16.109034000      3.911580000
C       -2.464237000    -14.721951000      3.759514000
C       -2.109883000     -7.284261000     -2.903761000
C       -7.819874000     -6.858553000      5.442330000
O       -2.310257000    -11.673310000      3.843640000
C        0.776554000    -13.359983000      7.253857000
C        1.243825000    -14.606769000      7.777058000
N        1.676435000    -15.580753000      8.254530000
Cl      -1.213535000    -18.350351000      5.060618000
Cl      -3.325868000    -17.156719000      2.923054000
C       -1.915898000      2.869471000      8.088074000
C        4.425714000      0.415866000      0.636412000
C        1.286595000    -12.262570000      8.017707000
N        1.730701000    -11.425602000      8.700845000
C       -4.265401000      8.048089000      1.209866000
N       -4.336236000      7.886815000      2.364439000
H       -4.769753000      5.307692000     -5.146728000
H       -4.289597000      9.765437000     -2.956418000
H       -3.045841000      5.971491000      0.845471000
H       -5.077431000      2.910804000     -0.503712000
H        0.152864000     -2.266227000      4.273179000
H       -3.899172000     -3.236824000      1.438540000
H        1.215335000     -8.409745000      6.329342000
H        0.764240000    -10.686257000      6.415998000
H        0.063312000    -16.219493000      6.335458000
H       -3.165133000    -14.308533000      3.047160000
H       -2.639786000     -0.658070000      5.089472000
H        3.689101000      0.126717000      3.280992000
H        1.447685000      0.035473000      4.238252000
H        1.998038000      0.466343000     -0.657525000
H       -0.243756000      0.356737000      0.292645000
H       -3.041002000      0.517246000      7.184914000
H       -0.267418000      3.582353000      6.003039000
H        0.149902000      2.401166000      3.910683000
H       -4.614788000     -5.654580000      0.705564000
H       -4.346470000     -6.301752000     -1.630207000
H       -0.482519000     -6.613799000      1.438123000
H       -0.225611000     -7.279330000     -0.892333000
H       -4.110460000     -4.113734000      4.640401000
H       -6.188566000     -4.660806000      5.783351000
H       -6.462942000     -8.320601000      3.542125000
H       -4.388654000     -7.771262000      2.385722000
H       -2.000537000      3.948645000      7.936521000
H       -2.827858000      2.525279000      8.579711000
H       -1.082966000      2.700874000      8.779548000
H        4.494181000     -0.114149000     -0.316829000
H        4.686275000      1.463161000      0.447076000
H        5.181708000      0.004819000      1.308631000
H       -7.939750000     -7.934789000      5.586912000
H       -7.890732000     -6.375867000      6.419338000
H       -8.669088000     -6.512435000      4.842230000
H       -2.782362000     -6.729670000     -3.562155000
H       -1.088223000     -7.133916000     -3.260009000
H       -2.342894000     -8.348956000     -3.016730000

eps=4.88617
epsinf=4.88617
RSolv=8.36
