%mem=1000MW
%nprocshared=40
#p wB97XD/6-31g** nosymm pop=esp opt td=(nstates=2,root=1) scf=(MaxCycle=20000) iop(3/107=0001100000,3/108=0001100000) SCRF=(PCM,Solvent=Generic,Read)

 IT4CL

0  1
C       -0.060882000     -0.057970000      0.087511000
C       -0.013848000     -0.014799000      1.488546000
C        1.250693000     -0.032695000      2.099868000
C        2.418948000     -0.071804000      1.336177000
C        2.375741000     -0.099141000     -0.067600000
C        1.110356000     -0.094706000     -0.673593000
C       -1.311858000     -0.072697000      2.336307000
C       -2.562623000      0.355866000      1.558884000
C       -3.442329000     -0.733420000      1.398245000
C       -2.908324000     -1.916288000      1.969352000
C       -1.646772000     -1.569136000      2.568240000
S       -4.924652000     -0.340597000      0.555279000
C       -4.367088000      1.324868000      0.408254000
C       -3.090289000      1.525736000      1.001739000
C       -4.917827000      2.466468000     -0.159788000
C       -4.065797000      3.592846000     -0.051589000
S       -2.564876000      3.178827000      0.804866000
C       -0.893812000     -2.522989000      3.212304000
C       -1.396205000     -3.848349000      3.254834000
C       -2.649812000     -4.199066000      2.641219000
C       -3.407926000     -3.242837000      2.006916000
C       -0.863744000     -5.030929000      3.828429000
C       -1.695857000     -6.140745000      3.580292000
C       -2.933745000     -5.717465000      2.780496000
S        0.568884000     -5.402801000      4.761844000
C        0.053578000     -7.087194000      4.829114000
C       -1.178705000     -7.306967000      4.154327000
S       -1.649438000     -8.986335000      4.240602000
C       -0.195817000     -9.381569000      5.186337000
C        0.600525000     -8.228244000      5.400876000
C       -4.512147000      4.879569000     -0.463637000
C       -3.884430000      6.100600000     -0.682533000
C       -2.419564000      6.365741000     -0.630193000
C       -2.217319000      7.706967000     -1.244429000
C       -3.468197000      8.260710000     -1.574155000
C       -4.538839000      7.320560000     -1.145685000
C       -1.021465000      8.362375000     -1.491910000
C       -1.064293000      9.619109000     -2.111738000
C       -2.307542000     10.182111000     -2.463888000
C       -3.511480000      9.511367000     -2.195395000
Cl       0.444502000     10.444770000     -2.431540000
Cl      -2.404886000     11.741729000     -3.252701000
O       -1.537607000      5.639017000     -0.191658000
C       -5.904399000      7.615912000     -1.122262000
C       -6.470861000      8.826929000     -1.630303000
N       -7.003339000      9.786455000     -2.029804000
C       -1.259586000      0.753408000      3.648936000
C       -0.572727000      1.977375000      3.705620000
C       -0.592911000      2.761382000      4.860227000
C       -1.304114000      2.362222000      6.004377000
C       -2.000026000      1.145749000      5.939026000
C       -1.983529000      0.358769000      4.784153000
C       -2.971761000     -6.313935000      1.347983000
C       -4.159084000     -6.305835000      0.597393000
C       -4.180689000     -6.760053000     -0.722494000
C       -3.019096000     -7.238935000     -1.350532000
C       -1.832871000     -7.234180000     -0.601102000
C       -1.806970000     -6.777368000      0.719312000
C       -4.191305000     -6.032232000      3.633412000
C       -4.851839000     -7.265155000      3.516972000
C       -5.938134000     -7.581375000      4.336225000
C       -6.406254000     -6.683912000      5.308632000
C       -5.732781000     -5.457929000      5.433152000
C       -4.645519000     -5.138859000      4.616883000
C        0.200507000    -10.633896000      5.729166000
C       -0.315190000    -11.926221000      5.698750000
C       -1.481243000    -12.393661000      4.900588000
C       -1.510245000    -13.875652000      5.024114000
C       -0.466035000    -14.291321000      5.869945000
C        0.259753000    -13.090564000      6.368822000
C       -0.290662000    -15.658299000      6.101574000
C       -1.163423000    -16.573196000      5.491376000
C       -2.211496000    -16.136459000      4.656300000
C       -2.385418000    -14.765656000      4.421486000
C       -3.052420000     -7.767612000     -2.773483000
C       -7.610415000     -7.012778000      6.172933000
O       -2.267017000    -11.717914000      4.248248000
C        1.253173000    -13.115499000      7.352699000
C        1.782369000    -14.313693000      7.927547000
N        2.268631000    -15.244462000      8.438623000
Cl      -0.903667000    -18.276033000      5.802822000
Cl      -3.310958000    -17.262862000      3.893045000
C       -1.298123000      3.210762000      7.263520000
C        3.648550000     -0.101847000     -0.895421000
C        1.838603000    -11.956948000      7.954802000
N        2.352573000    -11.064555000      8.506139000
C       -6.902846000      6.778969000     -0.529715000
N       -7.769308000      6.159717000     -0.050190000
H       -0.076319000      7.914431000     -1.217636000
H       -4.435714000      9.982124000     -2.488235000
H       -5.554995000      4.844607000     -0.750596000
H       -5.886924000      2.516842000     -0.635194000
H        0.053552000     -2.281323000      3.671755000
H       -4.353509000     -3.484816000      1.543958000
H        1.526236000     -8.258252000      5.957304000
H        1.129205000    -10.526684000      6.272421000
H        0.495980000    -16.044918000      6.728193000
H       -3.182492000    -14.412426000      3.781566000
H       -2.545073000     -0.567025000      4.781291000
H        3.376906000     -0.078996000      1.846419000
H        1.337084000     -0.007834000      3.179052000
H        1.028687000     -0.121259000     -1.755476000
H       -1.012777000     -0.067325000     -0.428201000
H       -2.567524000      0.801320000      6.797617000
H       -0.046653000      3.699185000      4.864676000
H       -0.007327000      2.325437000      2.851090000
H       -5.081697000     -5.951460000      1.039598000
H       -5.120222000     -6.741923000     -1.265702000
H       -0.863260000     -6.783286000      1.249808000
H       -0.910945000     -7.591814000     -1.048317000
H       -4.154048000     -4.184490000      4.758479000
H       -6.056755000     -4.737406000      6.177338000
H       -6.423196000     -8.543944000      4.210642000
H       -4.532047000     -7.988278000      2.778345000
H       -1.469416000      4.265735000      7.032919000
H       -2.067085000      2.890564000      7.969059000
H       -0.330846000      3.141919000      7.773054000
H        3.495211000     -0.578986000     -1.865875000
H        3.989700000      0.922515000     -1.082738000
H        4.458562000     -0.627111000     -0.383743000
H       -7.725917000     -8.090271000      6.307973000
H       -7.529945000     -6.553773000      7.161066000
H       -8.531297000     -6.638027000      5.711991000
H       -3.828315000     -7.276797000     -3.365413000
H       -2.095287000     -7.618235000     -3.278437000
H       -3.263265000     -8.842946000     -2.781916000

eps=4.88617
epsinf=4.88617
RSolv=8.36
