%mem=1000MW
%nprocshared=40
#p wB97XD/6-31g** nosymm pop=esp opt td=(nstates=2,root=1) scf=(MaxCycle=20000) iop(3/107=0001100000,3/108=0001100000) SCRF=(PCM,Solvent=Generic,Read)

 IT4CL

0  1
C       -0.007117000      0.115264000      0.179111000
C        0.022900000      0.046275000      1.579560000
C        1.279937000     -0.033425000      2.201544000
C        2.456882000     -0.030281000      1.450234000
C        2.430553000      0.052673000      0.048328000
C        1.172747000      0.123298000     -0.569247000
C       -1.283998000     -0.055135000      2.410639000
C       -2.529692000      0.381585000      1.629943000
C       -3.382827000     -0.715298000      1.405026000
C       -2.843664000     -1.908716000      1.950425000
C       -1.604677000     -1.562272000      2.593713000
S       -4.855373000     -0.313569000      0.550171000
C       -4.335700000      1.367268000      0.494729000
C       -3.075163000      1.565718000      1.117774000
C       -4.912312000      2.528812000     -0.023270000
C       -4.083695000      3.652498000      0.138885000
S       -2.604089000      3.241116000      1.022772000
C       -0.865090000     -2.523195000      3.244222000
C       -1.360414000     -3.850840000      3.250769000
C       -2.587409000     -4.201028000      2.588082000
C       -3.330507000     -3.239600000      1.942966000
C       -0.848211000     -5.037354000      3.840138000
C       -1.668972000     -6.144181000      3.556831000
C       -2.870730000     -5.721612000      2.703742000
S        0.541210000     -5.408810000      4.836198000
C        0.019238000     -7.091253000      4.886983000
C       -1.180678000     -7.310896000      4.158055000
S       -1.663897000     -8.985378000      4.232649000
C       -0.256827000     -9.381775000      5.245096000
C        0.534267000     -8.232593000      5.489531000
C       -4.538613000      4.996201000     -0.110532000
C       -3.893220000      6.105315000     -0.624175000
C       -2.539379000      6.114531000     -1.270739000
C       -2.433443000      7.425400000     -1.972589000
C       -3.590130000      8.188278000     -1.717513000
C       -4.483081000      7.427278000     -0.810259000
C       -1.399985000      7.883029000     -2.774561000
C       -1.519673000      9.150353000     -3.363477000
C       -2.674412000      9.923158000     -3.127071000
C       -3.709379000      9.451483000     -2.304414000
Cl      -0.218186000      9.724599000     -4.382741000
Cl      -2.869143000     11.505272000     -3.851487000
O       -1.700258000      5.227133000     -1.276451000
C       -5.631370000      7.927903000     -0.186243000
C       -6.192295000      9.215575000     -0.450796000
N       -6.707506000     10.249496000     -0.625211000
C       -1.253165000      0.730345000      3.748549000
C       -0.555119000      1.943850000      3.860912000
C       -0.593776000      2.690163000      5.039827000
C       -1.335353000      2.262532000      6.153927000
C       -2.042129000      1.056606000      6.032910000
C       -2.007484000      0.307647000      4.853580000
C       -2.836236000     -6.309076000      1.267061000
C       -3.982802000     -6.289876000      0.455619000
C       -3.937452000     -6.734367000     -0.866969000
C       -2.746827000     -7.214464000     -1.436930000
C       -1.601512000     -7.221964000     -0.626326000
C       -1.642562000     -6.774912000      0.696954000
C       -4.165374000     -6.045680000      3.495112000
C       -4.823210000     -7.275031000      3.334464000
C       -5.944404000     -7.598233000      4.102868000
C       -6.450546000     -6.712089000      5.066454000
C       -5.779962000     -5.489924000      5.235501000
C       -4.658688000     -5.163573000      4.469880000
C        0.109667000    -10.633854000      5.811706000
C       -0.408331000    -11.922668000      5.763957000
C       -1.544000000    -12.387902000      4.921792000
C       -1.579606000    -13.869704000      5.043084000
C       -0.570858000    -14.288589000      5.928899000
C        0.137351000    -13.089773000      6.457843000
C       -0.406766000    -15.656180000      6.165689000
C       -1.255356000    -16.568757000      5.519884000
C       -2.268333000    -16.128742000      4.643418000
C       -2.431222000    -14.757790000      4.404242000
C       -2.707061000     -7.731531000     -2.863937000
C       -7.689581000     -7.049390000      5.876580000
O       -2.303462000    -11.710435000      4.241159000
C        1.089232000    -13.117313000      7.478955000
C        1.588331000    -14.317112000      8.078482000
N        2.048459000    -15.248516000      8.611413000
Cl      -1.011439000    -18.272087000      5.838897000
Cl      -3.335877000    -17.252489000      3.833436000
C       -1.350348000      3.071887000      7.438400000
C        3.711279000      0.095308000     -0.766127000
C        1.658928000    -11.959794000      8.099386000
N        2.157036000    -11.068946000      8.666859000
C       -6.348449000      7.239489000      0.842904000
N       -6.971186000      6.747592000      1.700438000
H       -0.520357000      7.277654000     -2.945421000
H       -4.574013000     10.078153000     -2.158578000
H       -5.613006000      5.081616000      0.000832000
H       -5.877011000      2.582622000     -0.507195000
H        0.063075000     -2.283419000      3.742130000
H       -4.260134000     -3.479315000      1.447754000
H        1.433288000     -8.263425000      6.088122000
H        1.014319000    -10.527144000      6.394146000
H        0.353140000    -16.044762000      6.823250000
H       -3.201150000    -14.402522000      3.733084000
H       -2.578148000     -0.611405000      4.807285000
H        3.408338000     -0.090848000      1.968957000
H        1.355206000     -0.090165000      3.280283000
H        1.103733000      0.186967000     -1.650419000
H       -0.952080000      0.162153000     -0.346615000
H       -2.633672000      0.691349000      6.866285000
H       -0.038249000      3.621332000      5.087560000
H        0.032204000      2.313559000      3.030651000
H       -4.925604000     -5.934016000      0.851501000
H       -4.847120000     -6.707386000     -1.458545000
H       -0.727537000     -6.789607000      1.275386000
H       -0.659339000     -7.581141000     -1.027870000
H       -4.171608000     -4.212504000      4.644730000
H       -6.132796000     -4.778162000      5.975028000
H       -6.425943000     -8.557872000      3.945402000
H       -4.472306000     -7.990545000      2.602353000
H       -1.528674000      4.131788000      7.237254000
H       -2.124080000      2.724316000      8.125499000
H       -0.387889000      2.996357000      7.955895000
H        3.582019000     -0.383005000     -1.739844000
H        4.018398000      1.131275000     -0.948230000
H        4.533584000     -0.404707000     -0.249454000
H       -7.803497000     -8.127765000      6.006485000
H       -7.656205000     -6.590225000      6.867211000
H       -8.591999000     -6.681263000      5.375526000
H       -3.453312000     -7.237606000     -3.490359000
H       -1.726381000     -7.575737000     -3.319426000
H       -2.914221000     -8.807250000     -2.892282000

eps=4.88617
epsinf=4.88617
RSolv=8.36
