%mem=1000MW
%nprocshared=40
#p wB97XD/6-31g** nosymm pop=esp opt td=(nstates=2,root=1) scf=(MaxCycle=20000) iop(3/107=0001100000,3/108=0001100000) SCRF=(PCM,Solvent=Generic,Read)

 IT4CL

0  1
C       -0.196797000      0.281483000      0.412710000
C       -0.168019000      0.192112000      1.812272000
C        1.088603000      0.143742000      2.437714000
C        2.267087000      0.197138000      1.690294000
C        2.241972000      0.301395000      0.289924000
C        0.984188000      0.339975000     -0.331108000
C       -1.473581000      0.033294000      2.635196000
C       -2.729078000      0.464550000      1.868022000
C       -3.568826000     -0.638755000      1.630170000
C       -3.002553000     -1.836824000      2.145696000
C       -1.760887000     -1.484204000      2.775168000
S       -5.045820000     -0.241651000      0.786479000
C       -4.538738000      1.440628000      0.737262000
C       -3.289642000      1.649111000      1.367117000
C       -5.110571000      2.599345000      0.175748000
C       -4.301650000      3.712838000      0.361070000
S       -2.834392000      3.332473000      1.262706000
C       -0.989079000     -2.451370000      3.382116000
C       -1.460295000     -3.783648000      3.358297000
C       -2.692795000     -4.138846000      2.717282000
C       -3.467434000     -3.172964000      2.113205000
C       -0.907556000     -4.985038000      3.897651000
C       -1.710725000     -6.091745000      3.596401000
C       -2.948007000     -5.666446000      2.797416000
S        0.512394000     -5.355244000      4.845939000
C        0.032068000     -7.047856000      4.848837000
C       -1.177915000     -7.271907000      4.144264000
S       -1.617755000     -8.954948000      4.161767000
C       -0.181413000     -9.352375000      5.126761000
C        0.587252000     -8.201018000      5.398611000
C       -4.636068000      5.095355000     -0.012528000
C       -3.914992000      5.960310000     -0.788552000
C       -2.792531000      5.525497000     -1.709081000
C       -2.402648000      6.735587000     -2.473327000
C       -3.215998000      7.820587000     -2.070191000
C       -4.158434000      7.383499000     -1.031475000
C       -1.410733000      6.853312000     -3.434109000
C       -1.203569000      8.100826000     -4.038283000
C       -2.000156000      9.198138000     -3.648237000
C       -2.996929000      9.070960000     -2.672763000
Cl       0.043573000      8.249291000     -5.262289000
Cl      -1.770851000     10.778801000     -4.373947000
O       -2.337595000      4.400724000     -1.846300000
C       -5.095906000      8.206825000     -0.361023000
C       -5.374119000      9.556334000     -0.721946000
N       -5.657080000     10.663875000     -0.974486000
C       -1.468347000      0.778069000      3.997353000
C       -0.817786000      2.014004000      4.145307000
C       -0.881901000      2.721403000      5.346831000
C       -1.601675000      2.230500000      6.449120000
C       -2.260969000      1.001873000      6.292641000
C       -2.201760000      0.292293000      5.090434000
C       -2.957897000     -6.211818000      1.344246000
C       -4.135952000     -6.198487000      0.579209000
C       -4.130514000     -6.595891000     -0.759017000
C       -2.950581000     -7.020822000     -1.391652000
C       -1.774766000     -7.024810000     -0.626172000
C       -1.775874000     -6.625153000      0.712982000
C       -4.208439000     -6.031028000      3.627591000
C       -4.853798000     -7.266335000      3.461164000
C       -5.941737000     -7.624402000      4.261547000
C       -6.425738000     -6.768942000      5.263508000
C       -5.766718000     -5.541376000      5.438152000
C       -4.678600000     -5.180357000      4.640848000
C        0.219668000    -10.617611000      5.649679000
C       -0.263631000    -11.908897000      5.551059000
C       -1.359754000    -12.382186000      4.659231000
C       -1.313921000    -13.867774000      4.694307000
C       -0.310570000    -14.288289000      5.584503000
C        0.313921000    -13.089500000      6.210207000
C       -0.078222000    -15.656833000      5.747087000
C       -0.857646000    -16.571710000      5.024886000
C       -1.869641000    -16.131405000      4.144127000
C       -2.097908000    -14.760747000      3.977481000
C       -2.954221000     -7.481849000     -2.838335000
C       -7.632552000     -7.142491000      6.105755000
O       -2.138378000    -11.705239000      4.002382000
C        1.201443000    -13.119301000      7.276683000
C        1.728139000    -14.322760000      7.850206000
N        2.203547000    -15.254683000      8.365751000
Cl      -0.533548000    -18.274652000      5.250139000
Cl      -2.853088000    -17.258166000      3.241585000
C       -1.641905000      2.997229000      7.758762000
C        3.522454000      0.399422000     -0.520071000
C        1.667225000    -11.960880000      7.982317000
N        2.074481000    -11.071148000      8.617404000
C       -5.861069000      7.800248000      0.769518000
N       -6.512633000      7.535540000      1.706007000
H       -0.807647000      5.999535000     -3.712764000
H       -3.572027000      9.944309000     -2.411631000
H       -5.541228000      5.452488000      0.463559000
H       -6.053384000      2.639004000     -0.349951000
H       -0.054238000     -2.208488000      3.865740000
H       -4.402524000     -3.415858000      1.630216000
H        1.499966000     -8.231866000      5.976367000
H        1.122034000    -10.509001000      6.236077000
H        0.685338000    -16.042678000      6.402102000
H       -2.864972000    -14.407007000      3.302482000
H       -2.737346000     -0.645736000      5.016949000
H        3.218461000      0.160355000      2.211388000
H        1.162118000      0.071595000      3.515670000
H        0.916133000      0.419124000     -1.411216000
H       -1.141030000      0.305007000     -0.115975000
H       -2.833970000      0.587813000      7.116030000
H       -0.363385000      3.671745000      5.422315000
H       -0.248380000      2.431418000      3.325303000
H       -5.071655000     -5.882645000      1.022870000
H       -5.063148000     -6.573964000     -1.313768000
H       -0.838459000     -6.632855000      1.254680000
H       -0.839440000     -7.342069000     -1.075904000
H       -4.200022000     -4.226111000      4.821163000
H       -6.103381000     -4.851770000      6.205589000
H       -6.415605000     -8.586788000      4.097611000
H       -4.521504000     -7.958854000      2.698942000
H       -1.822836000      4.061939000      7.589141000
H       -2.424115000      2.623050000      8.421956000
H       -0.687007000      2.909420000      8.288408000
H        3.415783000     -0.081905000     -1.495103000
H        3.785195000      1.447858000     -0.699872000
H        4.363690000     -0.066380000     -0.002177000
H       -7.712479000     -8.223981000      6.236131000
H       -7.586376000     -6.683844000      7.095992000
H       -8.557706000     -6.800064000      5.628649000
H       -3.709817000     -6.953851000     -3.424651000
H       -1.983800000     -7.320079000     -3.312918000
H       -3.176973000     -8.552759000     -2.904151000

eps=4.88617
epsinf=4.88617
RSolv=8.36
