%mem=1000MW
%nprocshared=40
#p wB97XD/6-31g** nosymm pop=esp opt td=(nstates=2,root=1) scf=(MaxCycle=20000) iop(3/107=0001100000,3/108=0001100000) SCRF=(PCM,Solvent=Generic,Read)

 IT4CL

0  1
C       -0.255710000      0.363692000      0.495602000
C       -0.220938000      0.257628000      1.893932000
C        1.037858000      0.209223000      2.514599000
C        2.213305000      0.278848000      1.763650000
C        2.182472000      0.399780000      0.364806000
C        0.922229000      0.438294000     -0.251447000
C       -1.521971000      0.079496000      2.720456000
C       -2.782692000      0.516237000      1.965683000
C       -3.620549000     -0.590663000      1.715741000
C       -3.044926000     -1.791998000      2.214230000
C       -1.802536000     -1.440485000      2.838214000
S       -5.100734000     -0.193758000      0.882529000
C       -4.600072000      1.491579000      0.847209000
C       -3.349473000      1.699799000      1.483693000
C       -5.169097000      2.648094000      0.287112000
C       -4.374973000      3.768033000      0.502717000
S       -2.900695000      3.386182000      1.392038000
C       -1.019773000     -2.413771000      3.425677000
C       -1.484597000     -3.744841000      3.385610000
C       -2.720264000     -4.099256000      2.753768000
C       -3.504816000     -3.129346000      2.168591000
C       -0.916642000     -4.955111000      3.902600000
C       -1.715929000     -6.056938000      3.595562000
C       -2.965728000     -5.629194000      2.817014000
S        0.516171000     -5.328544000      4.828478000
C        0.045848000     -7.022205000      4.814595000
C       -1.168863000     -7.244961000      4.123442000
S       -1.600874000     -8.928301000      4.126643000
C       -0.151515000     -9.329735000      5.068456000
C        0.614269000     -8.181629000      5.344830000
C       -4.668880000      5.159113000      0.106083000
C       -4.015857000      5.898416000     -0.843124000
C       -3.022852000      5.298688000     -1.817122000
C       -2.455112000      6.439315000     -2.574701000
C       -3.104484000      7.627270000     -2.161454000
C       -4.111269000      7.322239000     -1.134490000
C       -1.466907000      6.415501000     -3.544745000
C       -1.080697000      7.623191000     -4.143831000
C       -1.713581000      8.818619000     -3.748704000
C       -2.717988000      8.832404000     -2.770942000
Cl       0.178624000      7.592811000     -5.367216000
Cl      -1.267156000     10.354659000     -4.472927000
O       -2.758148000      4.115024000     -1.965351000
C       -5.011485000      8.255933000     -0.546412000
C       -4.957148000      9.660237000     -0.764895000
N       -4.959430000     10.824266000     -0.898444000
C       -1.514533000      0.802791000      4.094432000
C       -0.873293000      2.041756000      4.256824000
C       -0.935465000      2.729902000      5.469556000
C       -1.643310000      2.215517000      6.568859000
C       -2.293117000      0.983790000      6.397943000
C       -2.236299000      0.293469000      5.184436000
C       -2.990419000     -6.155517000      1.356842000
C       -4.178286000     -6.139294000      0.607239000
C       -4.187399000     -6.517501000     -0.736543000
C       -3.012916000     -6.924983000     -1.390411000
C       -1.827420000     -6.932172000     -0.640074000
C       -1.813958000     -6.552000000      0.704736000
C       -4.214275000     -6.012790000      3.657029000
C       -4.850891000     -7.251866000      3.482895000
C       -5.924309000     -7.630122000      4.292907000
C       -6.402647000     -6.792160000      5.312656000
C       -5.753581000     -5.560642000      5.493611000
C       -4.679147000     -5.179418000      4.686478000
C        0.261824000    -10.601496000      5.573874000
C       -0.218129000    -11.890068000      5.469429000
C       -1.326454000    -12.359242000      4.589031000
C       -1.267785000    -13.844440000      4.601988000
C       -0.247396000    -14.271048000      5.469412000
C        0.375554000    -13.078380000      6.107152000
C        0.000454000    -15.640003000      5.605258000
C       -0.782719000    -16.549681000      4.881669000
C       -1.814030000    -16.103716000      4.025286000
C       -2.055933000    -14.733188000      3.883554000
C       -3.031955000     -7.364940000     -2.843526000
C       -7.593144000     -7.192557000      6.165784000
O       -2.119900000    -11.678613000      3.955047000
C        1.267876000    -13.116123000      7.165983000
C        1.801414000    -14.324517000      7.724563000
N        2.281305000    -15.260060000      8.228397000
Cl      -0.440225000    -18.252664000      5.072517000
Cl      -2.803488000    -17.224648000      3.123372000
C       -1.680868000      2.960982000      7.890762000
C        3.459196000      0.515005000     -0.448748000
C        1.733717000    -11.962270000      7.880500000
N        2.140863000    -11.076928000      8.521090000
C       -6.092222000      7.897005000      0.304996000
N       -7.005835000      7.665642000      1.002125000
H       -1.000814000      5.483559000     -3.835207000
H       -3.169491000      9.776638000     -2.513590000
H       -5.338323000      5.663519000      0.793088000
H       -6.104999000      2.690074000     -0.249902000
H       -0.082423000     -2.172947000      3.905203000
H       -4.442882000     -3.370093000      1.690469000
H        1.533956000     -8.214169000      5.911368000
H        1.171939000    -10.494700000      6.148646000
H        0.779468000    -16.029063000      6.239933000
H       -2.836421000    -14.375417000      3.226353000
H       -2.764819000     -0.647635000      5.100468000
H        3.166643000      0.241722000      2.280994000
H        1.115371000      0.124656000      3.591333000
H        0.849751000      0.530061000     -1.330201000
H       -1.201490000      0.388125000     -0.030303000
H       -2.856332000      0.551903000      7.218857000
H       -0.424463000      3.683276000      5.556323000
H       -0.312764000      2.476532000      3.439755000
H       -5.110464000     -5.836482000      1.067153000
H       -5.127156000     -6.493939000     -1.278995000
H       -0.869620000     -6.561329000      1.234206000
H       -0.895736000     -7.236236000     -1.106182000
H       -4.207344000     -4.222955000      4.872852000
H       -6.086588000     -4.883599000      6.273683000
H       -6.391627000     -8.594708000      4.123109000
H       -4.522774000     -7.931108000      2.707015000
H       -1.857281000      4.028939000      7.738270000
H       -2.464646000      2.579125000      8.547692000
H       -0.726365000      2.860499000      8.418858000
H        3.354990000      0.034844000     -1.424635000
H        3.708588000      1.566924000     -0.626874000
H        4.307444000      0.057983000      0.065334000
H       -7.610489000     -8.269985000      6.346519000
H       -7.582114000     -6.686610000      7.133451000
H       -8.532869000     -6.929965000      5.667181000
H       -3.796690000     -6.831796000     -3.413101000
H       -2.067880000     -7.192294000     -3.327038000
H       -3.251150000     -8.435688000     -2.922309000

eps=4.88617
epsinf=4.88617
RSolv=8.36
