%mem=1000MW
%nprocshared=40
#p wB97XD/6-31g** nosymm pop=esp opt td=(nstates=2,root=1) scf=(MaxCycle=20000) iop(3/107=0001100000,3/108=0001100000) SCRF=(PCM,Solvent=Generic,Read)

 IT4CL

0  1
C       -0.064191000      0.368709000      0.517833000
C       -0.066393000      0.240857000      1.914975000
C        1.175483000      0.178567000      2.567530000
C        2.370366000      0.256775000      1.848863000
C        2.376709000      0.399984000      0.451873000
C        1.133109000      0.451633000     -0.196660000
C       -1.388430000      0.055675000      2.705452000
C       -2.629548000      0.507506000      1.926534000
C       -3.465519000     -0.595211000      1.642172000
C       -2.907511000     -1.803483000      2.142343000
C       -1.678996000     -1.464383000      2.797922000
S       -4.929058000     -0.185471000      0.788548000
C       -4.431925000      1.501742000      0.799314000
C       -3.186581000      1.697529000      1.457379000
C       -5.007085000      2.669967000      0.282005000
C       -4.222917000      3.791751000      0.543292000
S       -2.750344000      3.389629000      1.428047000
C       -0.917785000     -2.448225000      3.397994000
C       -1.396164000     -3.773147000      3.345309000
C       -2.621533000     -4.114249000      2.687256000
C       -3.379405000     -3.136146000      2.081461000
C       -0.855408000     -4.990200000      3.879672000
C       -1.664755000     -6.079927000      3.563530000
C       -2.891703000     -5.639795000      2.756211000
S        0.550348000     -5.378687000      4.840033000
C        0.051238000     -7.063963000      4.831581000
C       -1.150101000     -7.272984000      4.115186000
S       -1.615028000     -8.946862000      4.128721000
C       -0.195522000     -9.363988000      5.108002000
C        0.585817000     -8.228491000      5.388076000
C       -4.550212000      5.195094000      0.239740000
C       -4.035819000      5.963328000     -0.774490000
C       -3.133192000      5.401905000     -1.849553000
C       -2.729810000      6.555967000     -2.690975000
C       -3.372646000      7.717698000     -2.202355000
C       -4.214208000      7.377954000     -1.042283000
C       -1.884452000      6.564157000     -3.787482000
C       -1.645746000      7.780454000     -4.445263000
C       -2.273773000      8.949252000     -3.975815000
C       -3.133025000      8.929923000     -2.866687000
Cl      -0.571621000      7.791017000     -5.835736000
Cl      -2.007918000     10.495458000     -4.765718000
O       -2.807126000      4.233818000     -2.004076000
C       -5.054634000      8.286323000     -0.332315000
C       -5.083886000      9.689277000     -0.560001000
N       -5.149486000     10.851547000     -0.695306000
C       -1.413884000      0.761122000      4.089079000
C       -0.773341000      1.996094000      4.282878000
C       -0.865629000      2.669819000      5.501710000
C       -1.604032000      2.144704000      6.575639000
C       -2.252358000      0.917076000      6.373208000
C       -2.165125000      0.240854000      5.153520000
C       -2.896431000     -6.179629000      1.300930000
C       -4.068505000     -6.148998000      0.527365000
C       -4.058046000     -6.541820000     -0.812222000
C       -2.878907000     -6.979824000     -1.437287000
C       -1.709063000     -7.001598000     -0.662933000
C       -1.715025000     -6.606324000      0.677545000
C       -4.162859000     -5.996460000      3.574531000
C       -4.814988000     -7.226848000      3.398692000
C       -5.912379000     -7.580014000      4.188432000
C       -6.399394000     -6.724452000      5.188707000
C       -5.733748000     -5.501853000      5.372717000
C       -4.636375000     -5.145672000      4.585965000
C        0.181857000    -10.637948000      5.637944000
C       -0.322092000    -11.917004000      5.541175000
C       -1.425850000    -12.375615000      4.649248000
C       -1.395708000    -13.861323000      4.680197000
C       -0.397218000    -14.297106000      5.568272000
C        0.238692000    -13.109475000      6.202202000
C       -0.177485000    -15.668920000      5.723464000
C       -0.965441000    -16.571836000      4.996949000
C       -1.974026000    -16.116347000      4.118571000
C       -2.188794000    -14.743399000      3.958706000
C       -2.877405000     -7.436240000     -2.885432000
C       -7.615458000     -7.092564000      6.019997000
O       -2.196316000    -11.687430000      3.995607000
C        1.114365000    -13.151516000      7.274062000
C        1.618838000    -14.363142000      7.852666000
N        2.075368000    -15.301524000      8.372525000
Cl      -0.657720000    -18.278494000      5.211701000
Cl      -2.967501000    -17.229088000      3.211247000
C       -1.675635000      2.875335000      7.904418000
C        3.674303000      0.525844000     -0.326141000
C        1.591263000    -11.998232000      7.982474000
N        2.005546000    -11.113373000      8.619037000
C       -5.982245000      7.898319000      0.672026000
N       -6.772020000      7.643488000      1.500377000
H       -1.417824000      5.651382000     -4.133068000
H       -3.587939000      9.855631000     -2.554010000
H       -5.148414000      5.666093000      1.010510000
H       -5.943887000      2.726812000     -0.251678000
H        0.010202000     -2.217982000      3.900163000
H       -4.308990000     -3.365956000      1.581958000
H        1.491426000     -8.271348000      5.976114000
H        1.082523000    -10.541784000      6.229250000
H        0.583506000    -16.065148000      6.375321000
H       -2.952088000    -14.378734000      3.285279000
H       -2.693899000     -0.697478000      5.045391000
H        3.309790000      0.209274000      2.390182000
H        1.224876000      0.077630000      3.644436000
H        1.089691000      0.560505000     -1.275413000
H       -0.995746000      0.404281000     -0.032453000
H       -2.838745000      0.477489000      7.173510000
H       -0.354682000      3.620619000      5.613195000
H       -0.190374000      2.438963000      3.486023000
H       -5.003598000     -5.823817000      0.965678000
H       -4.986172000     -6.506400000     -1.373744000
H       -0.781877000     -6.628021000      1.226231000
H       -0.774721000     -7.330051000     -1.106613000
H       -4.153390000     -4.195204000      4.773927000
H       -6.072460000     -4.812242000      6.139248000
H       -6.390908000     -8.538872000      4.017632000
H       -4.480332000     -7.919508000      2.637603000
H       -1.856664000      3.943560000      7.759108000
H       -2.470626000      2.480827000      8.539955000
H       -0.731833000      2.776340000      8.451582000
H        3.600885000      0.043895000     -1.304010000
H        3.918903000      1.579740000     -0.498794000
H        4.512168000      0.076688000      0.211215000
H       -7.704047000     -8.173895000      6.145773000
H       -7.573760000     -6.637878000      7.012250000
H       -8.534370000     -6.741727000      5.537050000
H       -3.626869000     -6.902241000     -3.474079000
H       -1.903597000     -7.278311000     -3.354364000
H       -3.105594000     -8.505692000     -2.955804000

eps=4.88617
epsinf=4.88617
RSolv=8.36
