%mem=1000MW
%nprocshared=40
#p wB97XD/6-31g** nosymm pop=esp opt td=(nstates=2,root=1) scf=(MaxCycle=20000) iop(3/107=0016000000,3/108=0016000000) SCRF=(PCM,Solvent=Generic,Read)

 Y6 opt-TDdft

0 1
C         13.86666        2.43859       16.95924
C         12.57780        2.02849       16.59829
C         11.97138        2.58802       15.45767
C         12.60396        3.52950       14.65395
C         13.88449        3.93041       15.02212
C         14.49819        3.39151       16.16291
C         10.60809        2.01808       15.29760
C         10.38336        1.13015       16.47190
C         11.64712        1.03712       17.19518
C          9.16528        0.62826       16.92065
C          7.85332        0.57217       16.38098
C          6.73670        0.12266       17.15134
C          5.58244        0.05657       16.36783
C          5.75696        0.43920       15.01719
S          7.39619        0.92638       14.69988
S          3.92077       -0.44581       16.74525
C          3.47753       -0.13281       15.08484
C          4.56174        0.32881       14.29229
C          2.34583       -0.17638       14.27647
C          2.77115        0.21891       12.95353
N          4.12584        0.56503       13.00221
C          0.95796       -0.45534       14.53629
C         -0.00618       -0.31729       13.46690
C          0.45490       -0.02827       12.13406
C          1.86527        0.15590       11.87858
C         -0.18445        0.05463       10.90042
C          0.81217        0.23292        9.90533
N          2.05866        0.27592       10.49870
C          0.28436        0.27158        8.60616
C         -1.12133        0.13476        8.61434
S         -1.80166       -0.04404       10.24472
C         -1.72741        0.17248        7.35486
C         -0.75382        0.35955        6.32524
S          0.89097        0.50048        6.99226
N         -1.25966       -0.53999       13.84198
S         -1.21268       -0.90898       15.45644
N          0.42113       -0.78649       15.70407
C         -1.09625        0.37199        4.94809
C         -0.40339        0.61539        3.76562
C         -0.97293        0.52059        2.42503
C         -0.02997        1.18576        1.48994
C          1.13113        1.54711        2.19896
C          0.96763        1.17767        3.62855
C          2.22431        2.15719        1.59468
C          2.13685        2.42517        0.23229
C          0.98180        2.08323       -0.48693
C         -0.10660        1.45946        0.11879
F          3.15569        3.01771       -0.41157
F          0.93156        2.36789       -1.79787
C         -2.13838       -0.14548        2.04041
C         -2.90705       -0.99094        2.89928
N         -3.57259       -1.72383        3.53443
O          1.80900        1.33769        4.50450
C         -3.21956        0.06913        7.15887
C          3.28610       -0.05004        9.75543
C          4.81832        1.50566       12.10612
C          6.79427       -0.23476       18.61634
C         11.98464        0.12564       18.19658
C         11.16860       -0.98379       18.58168
N         10.56834       -1.93556       18.92886
O          9.83577        2.26622       14.38003
F         14.54769        4.84191       14.29214
F         15.72984        3.81222       16.49122
C         13.22700        0.14078       18.90340
N         14.22670        0.10545       19.53093
C         -2.67154       -0.11709        0.71456
N         -3.17230       -0.12479       -0.35307
H         14.39421        2.06883       17.82430
H         12.12851        3.94355       13.77494
H          9.19823        0.19861       17.91343
H          7.33785       -1.16888       18.77344
H          5.79306       -0.36452       19.02651
H          7.28578        0.54746       19.19834
H          5.22410        2.32641       12.69631
H          4.10482        1.92782       11.40572
H          5.62566        1.01407       11.56510
H          3.05720       -0.80972        9.00942
H          4.01934       -0.47012       10.43648
H          3.69576        0.82999        9.26184
H         -3.49206       -0.33999        6.18909
H         -3.68752        1.05385        7.25454
H         -3.65897       -0.58464        7.91395
H         -2.14794        0.16263        4.80732
H          3.11418        2.41881        2.15155
H         -0.96208        1.22283       -0.49413

  eps=3.36
  epsinf=3.36
  RSolv=7.28


