%mem=1000MW
%nprocshared=40
#p wB97XD/6-31g** nosymm pop=esp opt td=(nstates=2,root=1) scf=(MaxCycle=20000) iop(3/107=0016000000,3/108=0016000000) SCRF=(PCM,Solvent=Generic,Read)

 Y6 opt-TDdft

0 1
C         13.86796        2.43542       16.96260
C         12.57817        2.02779       16.60227
C         11.96730        2.59779       15.46927
C         12.59618        3.54775       14.67268
C         13.87758        3.94635       15.04033
C         14.49579        3.39685       16.17361
C         10.60425        2.02756       15.30783
C         10.38493        1.12683       16.47321
C         11.65049        1.02940       17.19241
C          9.16896        0.61819       16.92030
C          7.85620        0.56399       16.38278
C          6.74148        0.10592       17.15070
C          5.58674        0.04224       16.36758
C          5.75911        0.43482       15.01957
S          7.39637        0.92967       14.70473
S          3.92664       -0.46667       16.74285
C          3.48110       -0.14304       15.08505
C          4.56352        0.32626       14.29482
C          2.34875       -0.18381       14.27722
C          2.77237        0.22066       12.95661
N          4.12620        0.56947       13.00655
C          0.96141       -0.46614       14.53621
C         -0.00390       -0.32145       13.46865
C          0.45580       -0.02349       12.13723
C          1.86583        0.16280       11.88195
C         -0.18429        0.06678       10.90461
C          0.81192        0.24929        9.90954
N          2.05859        0.29010       10.50271
C          0.28418        0.29166        8.61101
C         -1.12360        0.16026        8.61841
S         -1.80127       -0.03252       10.24966
C         -1.72633        0.21550        7.35972
C         -0.74933        0.39092        6.33089
S          0.89378        0.52831        6.99905
N         -1.25679       -0.54785       13.84329
S         -1.20802       -0.92825       15.45504
N          0.42588       -0.80607       15.70208
C         -1.09921        0.37894        4.95551
C         -0.41010        0.61784        3.76940
C         -0.97551        0.50772        2.42859
C         -0.03764        1.17779        1.49114
C          1.11750        1.55711        2.20044
C          0.95415        1.19586        3.63188
C          2.20512        2.17587        1.59497
C          2.11797        2.43408        0.23069
C          0.96860        2.07446       -0.48895
C         -0.11407        1.44200        0.11817
F          3.13146        3.03415       -0.41457
F          0.91815        2.35028       -1.80173
C         -2.13303       -0.17263        2.04483
C         -2.89554       -1.02264        2.90444
N         -3.55214       -1.75654        3.53179
O          1.79036        1.37276        4.50952
C         -3.21177        0.09557        7.12341
C          3.28635       -0.03080        9.75791
C          4.81655        1.51547       12.11458
C          6.80057       -0.26366       18.61265
C         11.99175        0.10965       18.18542
C         11.17945       -1.00534       18.56144
N         10.58773       -1.95408       18.89732
O          9.82838        2.28492       14.39594
F         14.53734        4.86560       14.31699
F         15.72816        3.81551       16.50186
C         13.23446        0.12177       18.89104
N         14.22341        0.08427       19.51044
C         -2.66278       -0.15698        0.71761
N         -3.15621       -0.17564       -0.34042
H         14.39900        2.05760       17.82203
H         12.11736        3.96975       13.79929
H          9.20536        0.17968       17.90908
H          7.33165       -1.20667       18.75955
H          5.79930       -0.38259       19.02607
H          7.30535        0.50642       19.19919
H          5.22230        2.33343       12.70867
H          4.10171        1.94060       11.41731
H          5.62367        1.02755       11.56989
H          3.05843       -0.78718        9.00824
H          4.01993       -0.45330       10.43714
H          3.69524        0.85201        9.26867
H         -3.45994       -0.86076        6.65832
H         -3.58060        0.89378        6.47626
H         -3.76110        0.15807        8.06235
H         -2.14854        0.14905        4.82287
H          3.09040        2.45142        2.15241
H         -0.96513        1.19180       -0.49550

  eps=3.36
  epsinf=3.36
  RSolv=7.28


