%mem=800MW
%nprocshared=40
%chk=Y6-HSO-scan-90-S1fromT2.chk
%rwf=Y6-HSO-scan-90-S1fromT2.rwf
#p wB97XD/6-31g** td(50-50,nstates=5) 6D 10F nosymm GFInput scf=(MaxCycle=20000) iop(3/107=0016000000,3/108=0016000000) SCRF=(PCM,Solvent=Generic,Read)

 Y6

0 1
C               0.3075700000      0.8639500000      0.1724900000
C               0.3217100000      0.6697100000      1.5580500000
C               1.3325200000      1.2763000000      2.3267000000
C               2.3343800000      2.0629000000      1.7692500000
C               2.3076700000      2.2544900000      0.3919000000
C               1.3040600000      1.6611300000     -0.3879300000
C              -0.5565900000     -0.1190800000      2.4611600000
C              -0.1334100000      0.1354800000      3.8238300000
C               1.1290800000      0.9347200000      3.7571700000
C              -0.8790100000     -0.1503200000      4.9731600000
C              -0.6165600000     -0.0762100000      6.3600300000
S               0.9731500000      0.1793100000      7.1151200000
C               0.2972700000     -0.1033000000      8.6940100000
C              -1.0972200000     -0.3203900000      8.6309500000
C              -1.6366700000     -0.3075700000      7.3426800000
S              -1.8386200000     -0.5450400000     10.2275300000
C              -0.2648800000     -0.3459900000     10.9591900000
C               0.7606000000     -0.1112800000     10.0234400000
N               1.9742300000     -0.0010000000     10.6822400000
C               1.7159100000     -0.1394600000     12.0430700000
C               0.3254700000     -0.3964700000     12.2356200000
C               2.5871500000     -0.0584200000     13.1765100000
C               2.1317100000     -0.5072100000     14.4518800000
C               0.7536500000     -0.8657000000     14.6442800000
C              -0.1740000000     -0.7412400000     13.5382700000
N               3.9027400000      0.3842700000     13.2864500000
C               4.2996600000      0.1608100000     14.5954000000
C               3.2288100000     -0.3900300000     15.3253800000
C               5.4560100000      0.3462400000     15.3769300000
C               5.2500400000     -0.0678700000     16.7117000000
S               3.6162900000     -0.6968100000     17.0006600000
C               6.3600800000      0.0694100000     17.5481400000
C               7.4832400000      0.6021100000     16.8302200000
S               7.0690400000      0.9560900000     15.1370400000
N              -1.4300800000     -1.0357400000     13.8564700000
S              -1.4277800000     -1.4496200000     15.4587200000
N               0.1850300000     -1.2575800000     15.7795800000
C               8.7624100000      0.7172900000     17.4205800000
C               9.9795400000      1.2761900000     17.0151100000
C              11.2263900000      1.2003300000     17.7510000000
C              12.1485500000      2.2219800000     17.1891500000
C              11.5418700000      2.8082900000     16.0628400000
C              10.1935400000      2.2168700000     15.8721400000
C              12.1656200000      3.7837700000     15.2927700000
C              13.4378700000      4.1908600000     15.6803200000
C              14.0527100000      3.6230700000     16.8061700000
C              13.4297400000      2.6368800000     17.5687800000
F              15.2774400000      4.0473200000     17.1541200000
F              14.0922800000      5.1345000000     14.9834700000
C              11.5640000000      0.2755900000     18.7500500000
C              12.7795100000      0.3197200000     19.4977000000
N              13.7469500000      0.3083000000     20.1515400000
O               9.4197200000      2.4767800000     14.9613700000
C               6.3790700000     -0.2965600000     19.0106700000
C               4.5708200000      1.3738300000     12.4268700000
C               3.2556800000     -0.2382900000     10.0008300000
C              -3.0951700000     -0.5165200000      7.0229300000
O               1.8531000000      1.2700900000      4.6840000000
C              -1.5460300000     -1.0184200000      2.0382500000
C              -1.9741400000     -1.1476800000      0.6824900000
N              -2.3765000000     -1.2901700000     -0.4044200000
F               3.2398700000      3.0127900000     -0.2081700000
F               1.3090200000      1.8716300000     -1.7133900000
C              10.7765100000     -0.8682400000     19.0856000000
N              10.2060300000     -1.8400700000     19.3913900000
C              -2.1833100000     -1.9688800000      2.8935800000
N              -2.7214700000     -2.7926100000      3.5222600000
H              13.9596300000      2.2461500000     18.4231000000
H              11.6890500000      4.2185200000     14.4244100000
H               8.7802000000      0.2829500000     18.4114200000
H               6.8109300000      0.5026700000     19.6167000000
H               6.9600000000     -1.2055100000     19.1832900000
H               5.3694800000     -0.4749900000     19.3801100000
H               4.8974400000      2.2133500000     13.0393100000
H               3.8622100000      1.7567600000     11.6994900000
H               5.4309700000      0.9406200000     11.9182200000
H               3.1160600000     -1.0064500000      9.2413200000
H               3.9810200000     -0.6135900000     10.7157400000
H               3.6302400000      0.6703000000      9.5313200000
H              -3.4689800000      0.2528500000      6.3439300000
H              -3.7013400000     -0.4777200000      7.9276000000
H              -3.2610500000     -1.4900700000      6.5557000000
H              -1.8884100000     -0.4881800000      4.7776000000
H               3.1086700000      2.5162300000      2.3735400000
H              -0.4349400000      0.4412000000     -0.4860600000
                                                   
  eps=3.36                                       
  epsinf=3.36                                    
  RSolv=7.28
 
