%mem=800MW
%nprocshared=32
%chk=Y6-HSO-scan-100-T2fromS1.chk
%rwf=Y6-HSO-scan-100-T2fromS1.rwf
#p wB97XD/6-31g** td(50-50,nstates=5) 6D 10F nosymm GFInput scf=(MaxCycle=20000) iop(3/107=0016000000,3/108=0016000000) SCRF=(PCM,Solvent=Generic,Read)

 HSO

0 1
C              -0.0288000000      0.3840500000      0.0526300000
C               0.0735800000      0.1720900000      1.4331700000
C               1.2849600000      0.4522900000      2.0924900000
C               2.4125100000      0.9181700000      1.4215000000
C               2.3021900000      1.1206400000      0.0518900000
C               1.0920500000      0.8625300000     -0.6168300000
C              -0.8987700000     -0.3479700000      2.4251100000
C              -0.3008500000     -0.1596300000      3.7573600000
C               1.1326900000      0.1997100000      3.5484400000
C              -1.0107300000     -0.1150600000      4.9359600000
C              -0.6556900000      0.0463800000      6.3109100000
S               0.9815500000     -0.0821400000      6.9790400000
C               0.3576600000      0.0521600000      8.5878400000
C              -1.0377300000      0.2344700000      8.5941000000
C              -1.6322100000      0.2332200000      7.3200300000
S              -1.7186300000      0.4326200000     10.2179600000
C              -0.1111300000      0.2712000000     10.8801900000
C               0.8852000000      0.0838100000      9.8982700000
N               2.1165000000     -0.0614800000     10.5003100000
C               1.9178500000      0.0650500000     11.8759700000
C               0.5137400000      0.2284200000     12.1307400000
C               2.8348200000      0.0883000000     12.9531700000
C               2.3507500000     -0.0152800000     14.3086700000
C               0.9371600000      0.0416700000     14.5771100000
C               0.0156700000      0.2339400000     13.4811900000
N               4.2257900000      0.1653800000     12.9728000000
C               4.6228100000      0.0388200000     14.2888100000
C               3.4755700000     -0.0782200000     15.1245800000
C               5.8209200000      0.0280500000     15.0074600000
C               5.5903600000     -0.1079800000     16.3967200000
S               3.8731200000     -0.2157400000     16.8191800000
C               6.7525500000     -0.1468300000     17.1923200000
C               7.8976600000     -0.0199800000     16.3954900000
S               7.5294200000      0.0975600000     14.6748000000
N              -1.2527100000      0.3383000000     13.8583900000
S              -1.2686600000      0.1934700000     15.5067300000
N               0.3535400000     -0.0039300000     15.7680100000
C               9.3038800000     -0.1123900000     16.8143600000
C              10.1171800000      0.9442400000     17.1484100000
C              11.5041300000      0.9585700000     17.5549400000
C              11.8778500000      2.3621100000     17.8136800000
C              10.7695100000      3.2074500000     17.5726400000
C               9.6232600000      2.3716500000     17.1494700000
C              10.8149900000      4.5867700000     17.7295500000
C              12.0174300000      5.1532300000     18.1442400000
C              13.1266400000      4.3350100000     18.3891500000
C              13.0816000000      2.9498800000     18.2327500000
F              14.2772800000      4.9103700000     18.7895400000
F              12.1242700000      6.4897100000     18.3140400000
C              12.3738100000     -0.1636100000     17.6871000000
C              13.7328700000     -0.0721400000     18.0893600000
N              14.8581200000     -0.0576600000     18.4156400000
O               8.5002400000      2.7621000000     16.8606700000
C               6.7762300000     -0.2918700000     18.6919100000
C               5.0887700000      0.7886300000     11.9549600000
C               3.2457200000     -0.7261500000      9.8290100000
C              -3.1142500000      0.4035100000      7.0854600000
O               2.0108600000      0.3034900000      4.3922000000
C              -2.0772000000     -1.0060800000      2.1286000000
C              -2.5978900000     -1.1498600000      0.8012100000
N              -3.0757900000     -1.2934400000     -0.2519600000
F               3.3456900000      1.5747100000     -0.6538700000
F               1.0277700000      1.0889900000     -1.9353400000
C              11.9887700000     -1.5051500000     17.4263200000
N              11.7277700000     -2.6301900000     17.2249500000
C              -2.8753800000     -1.6943600000      3.1011600000
N              -3.5531900000     -2.2991500000      3.8313400000
H              13.9779300000      2.3871500000     18.4414300000
H               9.9506400000      5.2093200000     17.5387400000
H               9.6928500000     -1.1227100000     16.8316300000
H               7.8000500000     -0.3492800000     19.0572400000
H               6.2499100000     -1.1979700000     19.0036000000
H               6.2911900000      0.5630200000     19.1706200000
H               5.6658700000      1.5843900000     12.4233100000
H               4.4692400000      1.2408300000     11.1876300000
H               5.7649700000      0.0599900000     11.5114600000
H               2.8593100000     -1.5142200000      9.1846000000
H               3.8820400000     -1.1955800000     10.5721300000
H               3.8228900000     -0.0213300000      9.2327400000
H              -3.3200500000      1.0760500000      6.2520200000
H              -3.5964800000      0.8264600000      7.9662700000
H              -3.5892500000     -0.5581600000      6.8788300000
H              -2.0838800000     -0.1945600000      4.8174900000
H               3.3424100000      1.1209000000      1.9352700000
H              -0.9301800000      0.2135300000     -0.5149400000

  eps=3.36
  epsinf=3.36
  RSolv=7.28
 
