%mem=800MW
%nprocshared=64
#p wB97XD/6-31g** opt td=(nstates=2,root=1) pop=esp scf=(MaxCycle=20000) nosymm iop(3/107=0001100000,3/108=0001100000) SCRF=(PCM,Solvent=Generic,Read)

IT-4Cl

0  1
   C    -5.031097    15.447936    -0.521420        
   C    -4.704856    14.105933    -0.314776        
   C    -4.607662    13.625033     1.001160        
   C    -4.821594    14.426988     2.108730        
   C    -5.147216    15.768721     1.902516        
   C    -5.249955    16.270230     0.590094        
   C    -4.255161    12.186609     0.980088        
   C    -4.138143    11.801647    -0.443994        
   C    -4.416450    12.990801    -1.256397        
   C    -3.822782    10.542117    -0.913448        
   C    -3.528325     9.301193    -0.293622        
   S    -3.456750     8.893910     1.439304        
   C    -3.051337     7.248224     1.057328        
   C    -2.979909     7.037111    -0.337480        
   C    -3.245295     8.177558    -1.090056        
   C    -2.765612     6.080761     1.797059        
   C    -2.491744     5.007712     0.966105        
   S    -2.566736     5.372937    -0.738840        
   C    -2.207873     3.815998     1.729705        
   C    -2.335068     4.167261     3.100261        
   C    -2.712377     5.657665     3.266416        
   C    -1.850734     2.520582     1.327252        
   C    -1.628496     1.574524     2.314500        
   C    -1.745713     1.928321     3.685336        
   C    -2.095719     3.225771     4.087929        
   C    -1.214100     0.094201     2.148707        
   C    -1.104471    -0.314358     3.618741        
   C    -1.430083     0.744659     4.449134        
   S    -1.377169     0.372503     6.153480        
   C    -0.893434    -1.272752     5.752602        
   C    -0.799837    -1.477159     4.358166        
   S    -0.315851    -3.101428     3.976367        
   C    -0.235423    -3.507502     5.709350        
   C    -0.580358    -2.400932     6.505325        
   C     0.131317     0.041479     1.395566        
   C     0.162557     0.050891    -0.006561        
   C     1.372396     0.089234    -0.696076        
   C     2.596947     0.116063    -0.016346        
   C     2.561451     0.112411     1.382196        
   C     1.352881     0.077479     2.077453        
   C     3.906866     0.117943    -0.766884        
   C    -2.307315    -0.772804     1.484031        
   C    -1.991097    -2.048680     0.993205        
   C    -2.978140    -2.881520     0.471594        
   C    -4.317916    -2.476145     0.416191        
   C    -4.630844    -1.206509     0.912825        
   C    -3.646653    -0.369118     1.438567        
   C     0.109271    -4.735154     6.329669        
   C     0.483431    -5.978793     5.861082        
   C     0.623860    -6.357251     4.437381        
   C     1.033995    -7.780362     4.417186        
   C     1.142693    -8.258341     5.733289        
   C     0.807431    -7.155803     6.674187        
   C     1.518896    -9.587071     5.940760        
   C     1.775174   -10.399346     4.829885        
   C     1.661177    -9.900738     3.517298        
   C     1.285341    -8.572307     3.310266        
   C    -4.112733     5.867655     3.884959        
   C    -4.484780     7.132045     4.366413        
   C    -5.770925     7.367198     4.846072        
   C    -6.736438     6.352323     4.867303        
   C    -6.364102     5.094850     4.380933        
   C    -5.077942     4.854491     3.896531        
   C    -1.594157     6.359600     4.065174        
   C    -1.612457     6.358406     5.467578        
   C    -0.563648     6.912572     6.198072        
   C     0.541027     7.492041     5.560724        
   C     0.558137     7.486165     4.161875        
   C    -0.487513     6.929550     3.425746        
   O     0.442763    -5.655063     3.449830        
   C     0.817580    -7.274275     8.052850        
   C     0.498340    -6.209820     8.951227        
   N     0.243993    -5.363277     9.710848        
  Cl     1.979881   -10.908655     2.134148        
  Cl     2.242045   -12.052513     5.117823        
   C    -5.378358    -3.369588    -0.180926        
   C    -8.119327     6.603782     5.418351        
   C     1.657147     8.126220     6.355322        
   C    -4.423001    13.110169    -2.634998        
   C    -4.144078    12.034934    -3.533960        
   N    -3.921188    11.179919    -4.293972        
   O    -4.097483    11.478410     1.967376        
  Cl    -5.418694    16.789297     3.286493        
  Cl    -5.655482    17.939672     0.303197        
   C     1.152721    -8.485082     8.733554        
   N     1.419716    -9.453370     9.323872        
   C    -4.711616    14.333296    -3.314988        
   N    -4.941521    15.311380    -3.904766        
   H    -4.737247    14.019584     3.109905        
   H    -5.123170    15.883189    -1.506290        
   H    -3.781735    10.440557    -1.991958        
   H    -3.243597     8.230459    -2.172778        
   H    -2.168319     3.483662     5.139604        
   H    -1.745004     2.271680     0.276205        
   H    -0.590629    -2.456852     7.587846        
   H     0.056199    -4.637215     7.407983        
   H     1.621868   -10.019487     6.925801        
   H     1.191521    -8.167371     2.308929        
   H    -4.831759     3.866138     3.524118        
   H    -0.607339     6.897300     7.284337        
   H    -2.459907     5.933296     5.995955        
   H     1.402093     7.924323     3.635111        
   H    -0.433137     6.937430     2.342168        
   H    -7.090450     4.285915     4.378392        
   H    -6.027067     8.359508     5.208443        
   H    -3.761221     7.940766     4.378499        
   H    -0.766069     0.012699    -0.567190        
   H     1.363691     0.094389    -1.783258        
   H     1.367675     0.083154     3.162361        
   H     3.493414     0.136408     1.941305        
   H    -3.932555     0.606092     1.817130        
   H    -5.661932    -0.862573     0.890378        
   H    -2.699590    -3.865376     0.102804        
   H    -0.962509    -2.394452     1.006938        
   H    -8.474427     7.607164     5.163905        
   H    -8.841979     5.879967     5.031144        
   H    -8.130861     6.524596     6.512523        
   H     2.602000     8.105862     5.804569        
   H     1.434711     9.176432     6.581658        
   H     1.809646     7.614589     7.310389        
   H    -5.188930    -4.422645     0.048557        
   H    -6.373923    -3.114566     0.193220        
   H    -5.406014    -3.276610    -1.273755        
   H     3.818712     0.638733    -1.725070        
   H     4.698747     0.602686    -0.188539        
   H     4.240632    -0.904628    -0.982719        
                                                   
  eps=4.88617                                      
  epsinf=4.88617                                   
  RSolv=8.36                                       
                                                   
                                                   
 
