%mem=800MW
%nprocshared=40
%chk=Y6-TDDFT-S1toT1-Singlet.chk
#p wB97XD/6-31g** td=(nstates=1) scf=(MaxCycle=20000) iop(3/107=0016000000,3/108=0016000000) SCRF=(PCM,Solvent=Generic,Read)

 Y6

0 1
C             -10.8296300000     -8.4162800000      0.6349000000
C             -10.9580700000     -7.1665100000      0.0322000000
C              -9.8310600000     -6.3391300000     -0.0109600000
C              -8.6215100000     -6.7917800000      0.5451400000
C              -8.4868000000     -8.0422500000      1.1379300000
C              -9.6141000000     -8.8562600000      1.1791200000
C              -9.6107200000     -4.9843800000     -0.5883800000
C              -7.5840600000     -5.7375700000      0.3891700000
C              -8.2620000000     -4.5700800000     -0.2379500000
F             -11.8967500000     -9.2279500000      0.7001300000
F              -9.5543300000    -10.0728800000      1.7443500000
O              -6.4152800000     -5.8330200000      0.7414500000
C             -10.5204700000     -4.3073600000     -1.4011800000
C             -10.2043700000     -3.1373100000     -2.1610100000
C             -11.8602700000     -4.7469200000     -1.6367200000
N             -12.9670900000     -5.0429300000     -1.8590900000
N             -10.0153800000     -2.2049200000     -2.8369500000
H             -11.9220400000     -6.8909800000     -0.3656200000
H              -7.5481900000     -8.3797400000      1.5565200000
C              -7.7786700000     -3.2591400000     -0.3071500000
C              -6.5162800000     -2.6631400000     -0.1019500000
H              -8.5297500000     -2.5195600000     -0.5531000000
S              -4.9686100000     -3.5184800000      0.0789400000
C              -4.1019600000     -2.0053500000      0.0823600000
C              -6.3357100000     -1.2352300000     -0.1122200000
C              -4.9914800000     -0.9020900000     -0.0098500000
C              -7.4634000000     -0.2390900000     -0.2202000000
H              -7.9440200000     -0.2892900000     -1.1992200000
H              -7.0987700000      0.7785900000     -0.0844900000
H              -8.2254300000     -0.4182900000      0.5419600000
S              -4.1557300000      0.6680200000      0.0061500000
C              -2.6299800000     -0.1746500000      0.1413500000
C              -2.7722900000     -1.5926100000      0.1642800000
C              -1.2791000000      0.1223800000      0.2592400000
C              -0.5795300000     -1.1446500000      0.3001400000
N              -1.5260000000     -2.1789200000      0.2830600000
C              -0.5481800000      1.3564400000      0.3940600000
C               0.8848500000      1.3145800000      0.5858000000
C               1.5705800000      0.0496700000      0.5141200000
C               0.8238900000     -1.1697600000      0.2855200000
C              -1.3520600000     -3.5244100000      0.8526600000
H              -2.1179200000     -3.6939000000      1.6087600000
H              -0.3867400000     -3.5867500000      1.3454300000
H              -1.4266900000     -4.2931000000      0.0846600000
N              -1.0581500000      2.5808400000      0.4162300000
N               1.4388200000      2.5077500000      0.7569500000
S               0.2101300000      3.6183200000      0.6723000000
C               2.9119400000     -0.3069300000      0.5463700000
C               3.0008300000     -1.7059800000      0.2910000000
N               1.7314800000     -2.2243700000      0.1167300000
C               1.4926300000     -3.4651700000     -0.6358600000
H               2.2498800000     -3.5606300000     -1.4131400000
H               0.5257400000     -3.4087700000     -1.1265500000
H               1.5313500000     -4.3381500000      0.0144400000
C               4.3175800000     -2.1642800000      0.2368600000
C               5.2488700000     -1.1193100000      0.4727200000
S               4.4713100000      0.4561700000      0.7510400000
S               5.1253300000     -3.6937400000      0.0144600000
C               6.7132600000     -2.9077600000      0.1682800000
C               6.5839300000     -1.5020800000      0.4482100000
C               7.7462400000     -0.5671400000      0.6741000000
H               8.2848200000     -0.3758500000     -0.2564500000
H               8.4535300000     -0.9748500000      1.3994800000
H               7.4027500000      0.3923300000      1.0601900000
C               7.9699200000     -3.5177000000     -0.0329700000
C               8.3966500000     -4.8355900000     -0.2268700000
H               8.7691300000     -2.7880500000     -0.0156800000
C               7.6041400000     -6.0737900000      0.0039900000
C               9.7648600000     -5.2398200000     -0.5100900000
C               8.5731500000     -7.2015000000      0.0001100000
C               9.8606700000     -6.7068700000     -0.2729400000
C               8.3163500000     -8.5489200000      0.2267000000
C               9.3976700000     -9.4228300000      0.1880800000
C              10.6903900000     -8.9434100000     -0.0706800000
C              10.9418500000     -7.5937800000     -0.3090900000
C              10.7964500000     -4.4477500000     -1.0149200000
C              10.6237400000     -3.1126500000     -1.4983300000
C              12.1404900000     -4.9038800000     -1.1873300000
H               7.3184500000     -8.9159900000      0.4255200000
H              11.9601000000     -7.2944100000     -0.5011600000
O               6.3977500000     -6.1751100000      0.1888700000
F               9.2183100000    -10.7363900000      0.4010700000
F              11.7102200000     -9.8161100000     -0.0890500000
N              10.5576800000     -2.0366500000     -1.9452400000
N              13.2568700000     -5.2081700000     -1.3396800000
                                                   
  eps=3.36                                       
  epsinf=3.36                                    
  RSolv=7.28
 
