%mem=1000MW
%nprocshared=40
#p wB97XD/6-31g** nosymm pop=esp opt td=(triplet,nstates=2,root=1) scf=(MaxCycle=20000) iop(3/107=0001100000,3/108=0001100000) SCRF=(PCM,Solvent=Generic,Read)

 IT-4Cl opt-TDdft

0 1
C         -0.19413       -0.29063       -0.18098
C         -0.14943       -0.13775        1.21257
C          1.11408       -0.05320        1.82035
C          2.28323       -0.09809        1.05848
C          2.24199       -0.23523       -0.33922
C          0.97816       -0.33415       -0.94034
C         -1.44542       -0.19105        2.06198
C         -2.70880        0.17939        1.27408
C         -3.57775       -0.92674        1.18477
C         -3.01810       -2.07371        1.80334
C         -1.74866       -1.68268        2.35708
S         -5.07846       -0.59546        0.34962
C         -4.54447        1.06525        0.09930
C         -3.25813        1.30864        0.65879
C         -5.13429        2.15566       -0.53203
C         -4.31030        3.29882       -0.49352
S         -2.78288        2.95795        0.37336
C         -0.96222       -2.59761        3.01704
C         -1.44378       -3.92691        3.12916
C         -2.71356       -4.31785        2.57624
C         -3.50050       -3.40235        1.91721
C         -0.87372       -5.07939        3.72710
C         -1.70090       -6.20818        3.55768
C         -2.98367       -5.82706        2.80798
S          0.60437       -5.39846        4.60756
C          0.11860       -7.08627        4.75563
C         -1.13962       -7.34622        4.14608
S         -1.57846       -9.02877        4.30961
C         -0.07793       -9.37013        5.20033
C          0.70884       -8.19887        5.33945
C         -4.48362        4.62669       -0.96726
C         -5.45072        5.22949       -1.77263
C         -6.50164        4.56331       -2.59977
C         -7.02070        5.60767       -3.52651
C         -6.39609        6.83675       -3.25101
C         -5.48071        6.65486       -2.09253
C         -7.96565        5.45769       -4.52911
C         -8.29597        6.57519       -5.30817
C         -7.66797        7.81153       -5.05728
C         -6.72086        7.95048       -4.02956
Cl        -9.48564        6.38700       -6.57706
Cl        -8.04363        9.22775       -6.01541
O         -6.87984        3.39856       -2.57967
C         -4.85907        7.69397       -1.39413
C         -4.88352        9.06306       -1.80708
N         -4.85208       10.19647       -2.08675
C         -1.41545        0.68885        3.34084
C         -0.78493        1.94431        3.33712
C         -0.82771        2.77540        4.45776
C         -1.50713        2.39349        5.62679
C         -2.14750        1.14512        5.62170
C         -2.10740        0.31062        4.50124
C         -3.10985       -6.50200        1.41725
C         -4.34797       -6.57291        0.75829
C         -4.44933       -7.10303       -0.52944
C         -3.32032       -7.57982       -1.21555
C         -2.08284       -7.49294       -0.55954
C         -1.97728       -6.96119        0.72832
C         -4.18361       -6.09042        3.75822
C         -4.83057       -7.33760        3.77574
C         -5.85522       -7.60537        4.68445
C         -6.27549       -6.64428        5.61924
C         -5.61842       -5.40498        5.60762
C         -4.59043       -5.13384        4.70011
C          0.36309      -10.59795        5.76423
C         -0.13179      -11.89802        5.79764
C         -1.32613      -12.40935        5.07145
C         -1.31744      -13.88780        5.23363
C         -0.22536      -14.26043        6.03793
C          0.49465      -13.03198        6.47469
C         -0.00553      -15.61746        6.28895
C         -0.88413      -16.56525        5.74039
C         -1.98266      -16.17121        4.95012
C         -2.19975      -14.81059        4.69383
C         -3.44002       -8.19216       -2.59993
C         -7.40468       -6.94056        6.58991
O         -2.15753      -11.76643        4.44306
C          1.52440      -13.00890        7.41929
C          2.09409      -14.17936        8.01263
N          2.61280      -15.08552        8.53560
Cl        -0.56688      -18.25460        6.07065
Cl        -3.09285      -17.33828        4.26811
C         -1.52469        3.29189        6.85062
C          3.51611       -0.24676       -1.16501
C          2.11047      -11.82109        7.96126
N          2.62785      -10.90189        8.46291
C         -4.18499        7.53863       -0.14071
N         -3.64322        7.49843        0.89320
H         -8.43728        4.50118       -4.70780
H         -6.26520        8.91568       -3.88118
H         -3.68467        5.28888       -0.65971
H         -6.09910        2.16192       -1.00977
H         -0.00581       -2.32247        3.43753
H         -4.45462       -3.67817        1.49196
H          1.65875       -8.19643        5.85419
H          1.31351      -10.45926        6.26097
H          0.82056      -15.97217        6.88289
H         -3.03466      -14.48985        4.08591
H         -2.62588       -0.63858        4.54569
H          3.24039       -0.02201        1.56459
H          1.19776        0.05661        2.89425
H          0.89851       -0.44891       -2.01650
H         -1.14514       -0.38446       -0.69023
H         -2.68881        0.81239        6.50153
H         -0.32499        3.73616        4.41523
H         -0.24457        2.28000        2.46164
H         -5.24770       -6.22179        1.24752
H         -5.42540       -7.14648       -1.00196
H         -0.99812       -6.90503        1.18708
H         -1.18331       -7.84412       -1.05488
H         -4.10846       -4.16549        4.74158
H         -5.90590       -4.63529        6.31663
H         -6.33188       -8.58005        4.66142
H         -4.54752       -8.10813        3.07089
H         -1.71391        4.33335        6.57734
H         -2.29188        2.98509        7.56403
H         -0.55950        3.26133        7.36796
H          3.36253       -0.72499       -2.13457
H          3.86524        0.77484       -1.35229
H          4.32165       -0.77628       -0.64991
H         -7.25862       -7.90560        7.08324
H         -7.48234       -6.17442        7.36353
H         -8.36655       -6.98548        6.06790
H         -4.26388       -7.74905       -3.16403
H         -2.52226       -8.05824       -3.17687
H         -3.63033       -9.26899       -2.53010

  eps=4.88617
  epsinf=4.88617
  RSolv=8.36
 
