%mem=800MW
%nprocshared=32
%chk=IT-4Cl-HSO-scan-170-S1fromT1.chk
%rwf=IT-4Cl-HSO-scan-170-S1fromT1.rwf
#p wB97XD/6-31g** td(50-50,nstates=5) 6D 10F nosymm GFInput scf=(MaxCycle=20000) iop(3/107=0001100000,3/108=0001100000) SCRF=(PCM,Solvent=Generic,Read)

 HSO

0 1
C              -0.1801400000     -0.2791400000     -0.1813500000
C              -0.1393100000     -0.1294000000      1.2125700000
C               1.1228600000     -0.0450000000      1.8230500000
C               2.2940200000     -0.0875100000      1.0639100000
C               2.2563600000     -0.2220500000     -0.3340000000
C               0.9939800000     -0.3206300000     -0.9381300000
C              -1.4368500000     -0.1869400000      2.0592100000
C              -2.6993200000      0.1847900000      1.2676500000
C              -3.5717100000     -0.9308100000      1.1798300000
C              -3.0144700000     -2.0700400000      1.7981200000
C              -1.7413300000     -1.6800600000      2.3535200000
S              -5.0745400000     -0.5973700000      0.3385500000
C              -4.5363400000      1.0639700000      0.0860300000
C              -3.2442800000      1.3052900000      0.6517800000
C              -5.1199200000      2.1480600000     -0.5447200000
C              -4.2911900000      3.2988800000     -0.5071100000
S              -2.7657400000      2.9574700000      0.3633500000
C              -0.9563000000     -2.5933500000      3.0123100000
C              -1.4373700000     -3.9277200000      3.1273300000
C              -2.7115600000     -4.3173400000      2.5745300000
C              -3.4968000000     -3.4039800000      1.9160500000
C              -0.8676300000     -5.0745800000      3.7215900000
C              -1.6989200000     -6.2107100000      3.5563900000
C              -2.9844300000     -5.8272000000      2.8096700000
S               0.6163800000     -5.3975500000      4.6000200000
C               0.1273500000     -7.0863400000      4.7496500000
C              -1.1386400000     -7.3427000000      4.1411200000
S              -1.5802200000     -9.0279400000      4.3066600000
C              -0.0779100000     -9.3724200000      5.1931400000
C               0.7145600000     -8.1949800000      5.3285000000
C              -4.4667800000      4.6177400000     -0.9814100000
C              -5.4441800000      5.2176600000     -1.7861100000
C              -6.4766500000      4.5470300000     -2.6327100000
C              -7.0056100000      5.5975300000     -3.5482300000
C              -6.4007600000      6.8304000000     -3.2536100000
C              -5.4929800000      6.6436000000     -2.0854400000
C              -7.9408800000      5.4481000000     -4.5605700000
C              -8.2789100000      6.5706400000     -5.3277500000
C              -7.6671800000      7.8113800000     -5.0585900000
C              -6.7302900000      7.9488200000     -4.0212600000
Cl             -9.4578600000      6.3840800000     -6.6066000000
Cl             -8.0500000000      9.2335300000     -6.0043400000
O              -6.8330600000      3.3757600000     -2.6361100000
C              -4.9013800000      7.6806800000     -1.3624800000
C              -4.9491800000      9.0571000000     -1.7516200000
N              -4.9384200000     10.1952700000     -2.0104100000
C              -1.4083700000      0.6919200000      3.3390600000
C              -0.7843800000      1.9506700000      3.3352900000
C              -0.8283400000      2.7807500000      4.4567700000
C              -1.5027100000      2.3944600000      5.6271000000
C              -2.1362300000      1.1427000000      5.6225000000
C              -2.0943000000      0.3090400000      4.5012300000
C              -3.1171600000     -6.5074800000      1.4223000000
C              -4.3571000000     -6.5747400000      0.7664600000
C              -4.4645500000     -7.1086200000     -0.5193700000
C              -3.3398700000     -7.5933000000     -1.2068000000
C              -2.1004200000     -7.5105300000     -0.5540500000
C              -1.9890800000     -6.9752100000      0.7319300000
C              -4.1831000000     -6.0859200000      3.7631200000
C              -4.8279500000     -7.3340400000      3.7905600000
C              -5.8504600000     -7.5978600000      4.7031200000
C              -6.2707100000     -6.6315000000      5.6322000000
C              -5.6165000000     -5.3909100000      5.6102700000
C              -4.5910800000     -5.1237500000      4.6984500000
C               0.3616000000    -10.5945500000      5.7535100000
C              -0.1370100000    -11.8981000000      5.7886200000
C              -1.3296700000    -12.4102000000      5.0611400000
C              -1.3210200000    -13.8893800000      5.2243400000
C              -0.2309300000    -14.2619800000      6.0287600000
C               0.4871700000    -13.0286100000      6.4673300000
C              -0.0081900000    -15.6174600000      6.2792300000
C              -0.8847100000    -16.5667000000      5.7295700000
C              -1.9831000000    -16.1730800000      4.9390100000
C              -2.2018100000    -14.8133300000      4.6829500000
C              -3.4658400000     -8.2093500000     -2.5891300000
C              -7.3976100000     -6.9229600000      6.6072900000
O              -2.1606200000    -11.7686100000      4.4313500000
C               1.5096300000    -13.0054700000      7.4168600000
C               2.0752400000    -14.1765800000      8.0149100000
N               2.5903000000    -15.0817300000      8.5420300000
Cl             -0.5648500000    -18.2554900000      6.0587500000
Cl             -3.0911500000    -17.3413700000      4.2558900000
C              -1.5215100000      3.2914000000      6.8521800000
C               3.5324500000     -0.2315500000     -1.1570000000
C               2.0926200000    -11.8167500000      7.9629300000
N               2.6065600000    -10.8992700000      8.4697500000
C              -4.2413000000      7.5158000000     -0.1015400000
N              -3.7152700000      7.4701000000      0.9394900000
H              -8.3990300000      4.4881500000     -4.7549100000
H              -6.2853600000      8.9168700000     -3.8592900000
H              -3.6678200000      5.2840600000     -0.6826300000
H              -6.0825800000      2.1555600000     -1.0265800000
H               0.0006700000     -2.3185000000      3.4321600000
H              -4.4514400000     -3.6794900000      1.4913600000
H               1.6661700000     -8.1965400000      5.8401000000
H               1.3145800000    -10.4595300000      6.2462100000
H               0.8183900000    -15.9712700000      6.8730300000
H              -3.0362300000    -14.4935100000      4.0739200000
H              -2.6062200000     -0.6435900000      4.5464600000
H               3.2499300000     -0.0119200000      1.5725400000
H               1.2038900000      0.0623400000      2.8974200000
H               0.9168800000     -0.4335800000     -2.0147300000
H              -1.1298600000     -0.3724800000     -0.6930800000
H              -2.6731400000      0.8061000000      6.5036200000
H              -0.3302500000      3.7439700000      4.4138000000
H              -0.2472100000      2.2895000000      2.4589800000
H              -5.2537800000     -6.2173500000      1.2568700000
H              -5.4420700000     -7.1485000000     -0.9893400000
H              -1.0086800000     -6.9225800000      1.1884500000
H              -1.2038200000     -7.8678900000     -1.0504200000
H              -4.1118100000     -4.1538000000      4.7309900000
H              -5.9044600000     -4.6167600000      6.3143000000
H              -6.3252600000     -8.5736600000      4.6875900000
H              -4.5450200000     -8.1087000000      3.0900800000
H              -1.7115800000      4.3331000000      6.5803900000
H              -2.2888400000      2.9830100000      7.5648400000
H              -0.5566600000      3.2609800000      7.3702200000
H               3.3814200000     -0.7091400000     -2.1273300000
H               3.8814200000      0.7904100000     -1.3427500000
H               4.3372800000     -0.7610400000     -0.6407200000
H              -7.2535600000     -7.8881200000      7.1009600000
H              -7.4694300000     -6.1559300000      7.3806600000
H              -8.3617100000     -6.9643800000      6.0890300000
H              -4.2919000000     -7.7673300000     -3.1509000000
H              -2.5505700000     -8.0770900000     -3.1704900000
H              -3.6561400000     -9.2860000000     -2.5160900000

  eps=4.88617
  epsinf=4.88617
  RSolv=8.36
 
