%mem=800MW
%nprocshared=64
#p wB97XD/6-31g** opt td=(triplet,nstates=2,root=1) pop=esp scf=(MaxCycle=20000) nosymm iop(3/107=0003000000,3/108=0003000000) SCRF=(PCM,Solvent=Generic,Read)

IT-M

0  1
C          0.12829       -0.47854        0.04077
C          0.15675       -0.38703        1.43722
C          1.38845       -0.19034        2.08788
C          2.58461       -0.09552        1.38284
C          2.54376       -0.19243       -0.00975
C          1.32525       -0.37996       -0.69328
C          1.16470       -0.10539        3.55063
C         -0.30670       -0.22594        3.76586
C         -0.92001       -0.48104        2.46684
C         -0.99135       -0.02899        4.96526
C         -0.61022        0.19494        6.30879
S          1.02269        0.26010        7.00945
C          0.36493        0.51302        8.61313
C         -1.06282        0.54653        8.57590
C         -1.60359        0.37512        7.31683
C          0.87852        0.68005        9.89479
C         -0.15445        0.84091       10.85419
S         -1.77200        0.79245       10.17379
C          0.36777        0.99987       12.15419
C          1.80615        0.98130       12.04657
C          2.25257        0.78480       10.57272
C         -0.27667        1.14318       13.41525
C          0.50970        1.25459       14.53458
C          1.94817        1.23773       14.42708
C          2.59256        1.09834       13.16556
C          0.06225        1.37519       16.01616
C          1.43562        1.42947       16.70000
C          2.46952        1.36998       15.73137
S          4.08528        1.47644       16.40913
C          3.37298        1.59405       18.02048
C          1.94581        1.55608       17.98805
S          1.28263        1.65013       19.60603
C          2.91342        1.75558       20.30685
C          3.90995        1.70932       19.28836
C         -0.75206        0.10408       16.36898
C         -2.13357        0.03994       16.12796
C         -2.85281       -1.13475       16.36108
C         -2.22433       -2.29470       16.83940
C         -0.84001       -2.23114       17.06547
C         -0.11798       -1.05917       16.83130
C         -3.00793       -3.56306       17.12613
C         -0.67104        2.70983       16.31888
C         -1.51785        2.83842       17.43083
C         -2.11171        4.06269       17.74722
C         -1.87756        5.21098       16.97491
C         -1.01560        5.08292       15.87433
C         -0.42224        3.86021       15.55384
C          3.28514        1.89359       21.66490
C          2.59562        1.90701       22.87604
C          1.14731        1.61451       23.08767
C          0.96069        1.44622       24.54949
C          2.18336        1.68015       25.20697
C          3.20276        2.07456       24.19241
C          2.25620        1.52751       26.59507
C          1.10765        1.15593       27.32074
C         -0.10646        0.95046       26.63594
C         -0.18901        1.09129       25.24789
C          2.97600        2.02732        9.98629
C          3.76531        1.92004        8.83025
C          4.35637        3.04567        8.25262
C          4.18258        4.32585        8.80142
C          3.38167        4.43147        9.94910
C          2.78714        3.30782       10.52817
C          3.08508       -0.52029       10.50014
C          4.47189       -0.50247       10.72521
C          5.21220       -1.68508       10.75588
C          4.60141       -2.93587       10.56634
C          3.21517       -2.95031       10.35271
C          2.46997       -1.76778       10.32436
O          0.27626        1.51266       22.23140
C          4.46488        2.59178       24.48652
C          5.37003        3.13329       23.51737
N          6.15396        3.60801       22.79411
H         -0.99320        0.67215       27.19499
C         -2.55018        6.53229       17.30083
C          4.85810        5.54178        8.19313
C          5.41951       -4.21498       10.56644
C         -2.24818       -0.82206        2.20051
C         -3.24505       -1.08020        3.19565
N         -4.11089       -1.32643        3.93945
O          2.03092        0.04877        4.40432
H          3.46642       -0.12001       -0.57524
C          4.99678        2.71325       25.81016
N          5.50434        2.84252       26.85338
C         -2.78648       -1.00701        0.88707
N         -3.30943       -1.16739       -0.14429
H          3.52233        0.04996        1.90493
H         -0.79671       -0.61875       -0.49629
H         -2.06925       -0.02941        4.87828
H         -2.66032        0.36406        7.09188
H          3.67122        1.08128       13.10244
H         -1.35534        1.15705       13.47792
H          4.96542        1.76484       19.51309
H          4.36020        1.97610       21.75496
H          3.18182        1.67578       27.12950
C          1.18326        0.95007       28.82219
H         -1.12299        0.92593       24.72510
H          2.17265        3.44398       11.40871
H          6.28243       -1.62739       10.92825
H          4.98739        0.43832       10.87227
H          2.70223       -3.89533       10.20560
H          1.40047       -1.83409       10.16805
H          3.21583        5.40305       10.40383
H          4.95988        2.91800        7.35976
H          3.93610        0.95295        8.37558
H         -2.66434        0.91006       15.76240
H         -3.92090       -1.14025       16.16777
H          0.94998       -1.06462       17.00981
H         -0.31277       -3.10697       17.43017
H          0.24252        3.81554       14.70054
H         -0.79873        5.94794       15.25545
H         -2.76440        4.11767       18.61260
H         -1.72858        1.98185       18.05770
H          5.00650        5.42020        7.11787
H          4.27287        6.45002        8.35436
H          5.84368        5.70302        8.64460
H          4.79582       -5.09151       10.75395
H          5.91156       -4.36091        9.59843
H          6.20187       -4.18781       11.32916
H         -2.71854        6.64228       18.37458
H         -1.94969        7.38071       16.96472
H         -3.52565        6.60419       16.80667
H         -3.98072       -3.55552       16.63039
H         -2.46533       -4.45090       16.79075
H         -3.18488       -3.67652       18.20131
C          1.31453       -0.47792       -2.20756
H          2.04299        1.46187       29.25706
H          0.28084        1.31489       29.31782
H          1.27850       -0.11606       29.05491
H          0.30524       -0.60650       -2.60006
H          1.74130        0.42310       -2.65801
H          1.91810       -1.32657       -2.54366
                                                
  eps=4.46238                                      
  epsinf=4.46238                                   
  RSolv=7.54                                       
 
