%mem=800MW
%nprocshared=64
#p wB97XD/6-31g** opt td=(nstates=2,root=1) pop=esp scf=(MaxCycle=20000) nosymm iop(3/107=0003000000,3/108=0003000000) SCRF=(PCM,Solvent=Generic,Read)

IT-M

0  1
C          0.12827       -0.47877        0.04080
C          0.15674       -0.38730        1.43724
C          1.38845       -0.19067        2.08790
C          2.58461       -0.09587        1.38285
C          2.54374       -0.19276       -0.00975
C          1.32521       -0.38022       -0.69326
C          1.16472       -0.10570        3.55064
C         -0.30670       -0.22615        3.76587
C         -0.92004       -0.48117        2.46685
C         -0.99129       -0.02931        4.96533
C         -0.61013        0.19466        6.30882
S          1.02280        0.25991        7.00950
C          0.36503        0.51286        8.61319
C         -1.06271        0.54632        8.57593
C         -1.60349        0.37484        7.31688
C          0.87862        0.67997        9.89483
C         -0.15437        0.84085       10.85422
S         -1.77191        0.79233       10.17379
C          0.36783        0.99991       12.15422
C          1.80619        0.98138       12.04663
C          2.25265        0.78478       10.57280
C         -0.27665        1.14329       13.41522
C          0.50969        1.25484       14.53457
C          1.94813        1.23801       14.42708
C          2.59257        1.09854       13.16563
C          0.06220        1.37554       16.01613
C          1.43556        1.42975       16.70000
C          2.46947        1.37024       15.73138
S          4.08522        1.47660       16.40918
C          3.37292        1.59416       18.02053
C          1.94575        1.55626       17.98806
S          1.28257        1.65021       19.60605
C          2.91338        1.75558       20.30691
C          3.90991        1.70935       19.28841
C         -0.75219        0.10446       16.36898
C         -2.13368        0.04029       16.12780
C         -2.85292       -1.13439       16.36090
C         -2.22452       -2.29430       16.83939
C         -0.84022       -2.23071       17.06561
C         -0.11817       -1.05875       16.83145
C         -3.00817       -3.56262       17.12618
C         -0.67101        2.71024       16.31874
C         -1.51766        2.83905       17.43080
C         -2.11142        4.06339       17.74709
C         -1.87739        5.21154       16.97456
C         -1.01557        5.08329       15.87387
C         -0.42228        3.86053       15.55352
C          3.28507        1.89363       21.66494
C          2.59549        1.90698       22.87605
C          1.14721        1.61418       23.08771
C          0.96076        1.44559       24.54952
C          2.18340        1.67968       25.20697
C          3.20260        2.07462       24.19243
C          2.25646        1.52663       26.59501
C          1.10806        1.15458       27.32069
C         -0.10606        0.94903       26.63596
C         -0.18880        1.09020       25.24796
C          2.97599        2.02733        9.98631
C          3.76530        1.92006        8.83026
C          4.35629        3.04569        8.25257
C          4.18242        4.32591        8.80131
C          3.38149        4.43153        9.94897
C          2.78704        3.30785       10.52811
C          3.08521       -0.52024       10.50034
C          4.47200       -0.50240       10.72553
C          5.21232       -1.68498       10.75633
C          4.60158       -2.93581       10.56673
C          3.21535       -2.95028       10.35300
C          2.47015       -1.76776       10.32453
O          0.27615        1.51234       22.23147
C          4.46444        2.59254       24.48652
C          5.36927        3.13455       23.51735
N          6.15290        3.60966       22.79403
H         -0.99267        0.67035       27.19502
C         -2.54991        6.53293       17.30035
C          4.85785        5.54184        8.19295
C          5.41970       -4.21489       10.56695
C         -2.24826       -0.82200        2.20047
C         -3.24538       -1.07960        3.19551
N         -4.11143       -1.32533        3.93922
O          2.03095        0.04837        4.40433
H          3.46639       -0.12034       -0.57524
C          4.99623        2.71432       25.81017
N          5.50369        2.84388       26.85340
C         -2.78643       -1.00730        0.88702
N         -3.30929       -1.16801       -0.14432
H          3.52234        0.04959        1.90492
H         -0.79677       -0.61891       -0.49626
H         -2.06920       -0.02988        4.87838
H         -2.66022        0.36373        7.09195
H          3.67124        1.08151       13.10255
H         -1.35532        1.15711       13.47785
H          4.96536        1.76483       19.51312
H          4.36012        1.97620       21.75510
H          3.18213        1.67494       27.12935
C          1.18381        0.94838       28.82209
H         -1.12279        0.92472       24.72521
H          2.17256        3.44406       11.40864
H          6.28254       -1.62728       10.92879
H          4.98746        0.43841       10.87264
H          2.70245       -3.89531       10.20587
H          1.40066       -1.83406       10.16814
H          3.21558        5.40311       10.40366
H          4.95984        2.91802        7.35974
H          3.93613        0.95298        8.37559
H         -2.66440        0.91037       15.76207
H         -3.92099       -1.13990       16.16746
H          0.94978       -1.06419       17.01005
H         -0.31301       -3.10652       17.43043
H          0.24237        3.81569       14.70016
H         -0.79875        5.94821       15.25485
H         -2.76396        4.11851       18.61256
H         -1.72844        1.98265       18.05787
H          5.00602        5.42031        7.11765
H          4.27268        6.45008        8.35435
H          5.84354        5.70302        8.64420
H          4.79603       -5.09141       10.75455
H          5.91170       -4.36090        9.59891
H          6.20209       -4.18764       11.32962
H         -2.71848        6.64296       18.37405
H         -1.94930        7.38129       16.96432
H         -3.52528        6.60490       16.80598
H         -3.98075       -3.55527       16.63002
H         -2.46537       -4.45054       16.79131
H         -3.18557       -3.67573       18.20131
C          1.31447       -0.47820       -2.20755
H          2.04384        1.45973       29.25692
H          0.28163        1.31351       29.31791
H          1.27860       -0.11783       29.05461
H          0.30512       -0.60637       -2.60005
H          1.74163        0.42263       -2.65802
H          1.91768       -1.32712       -2.54361
                                                 
  eps=4.46238                                      
  epsinf=4.46238                                   
  RSolv=7.54                                       
    
