%mem=800MW
%nprocshared=64
%chk=IEICO-4Cl-HSO-w-00001-S1paraT1.chk
%rwf=IEICO-4Cl-HSO-w-00001-S1paraT1.rwf
#p wB97XD/6-31g** td(50-50,nstates=5) 6D 10F nosymm GFInput scf=(MaxCycle=20000) iop(3/107=0000100000,3/108=0000100000) SCRF=(PCM,Solvent=Generic,Read)

IEICO-4Cl

0  1
C              12.4884400000     -0.5454800000     10.0749300000
C              12.8105900000      0.2451800000      8.9684600000
C              14.1073900000      0.1612200000      8.4308800000
C              15.0754800000     -0.6908600000      8.9387500000
C              14.7488200000     -1.4913600000     10.0423000000
C              13.4607200000     -1.4073700000     10.6070200000
C              14.2295500000      1.1193200000      7.2990600000
C              12.9197900000      1.8109700000      7.1843100000
C              12.0182800000      1.2267400000      8.1745600000
C              12.6186300000      2.8670100000      6.3276400000
C              13.3258100000      3.5815600000      5.3254900000
C              12.7108100000      4.6468900000      4.6346300000
C              13.5257400000      5.2559200000      3.6766300000
C              14.8225200000      4.6812600000      3.5948400000
S              14.9724400000      3.3534500000      4.7428500000
C              15.9128100000      5.0535600000      2.7625300000
C              17.1956500000      4.4595100000      2.7354800000
C              18.0537600000      5.0644300000      1.8246200000
C              17.4627200000      6.1278100000      1.1252500000
S              15.8137000000      6.3946400000      1.5931200000
C              18.3795600000      6.7248000000      0.2186900000
C              19.6131300000      5.9933900000      0.3188200000
C              19.4953400000      4.8404400000      1.3494200000
C              20.7131900000      6.3727700000     -0.4171600000
C              20.5855100000      7.4902600000     -1.2793900000
C              19.3446700000      8.2065800000     -1.3980600000
C              18.2486000000      7.8354500000     -0.6520600000
C              19.4771800000      9.3919200000     -2.3888300000
C              20.9608400000      9.2551900000     -2.7573600000
C              21.5262100000      8.1375300000     -2.1250400000
S              23.1904400000      7.9032500000     -2.5549700000
C              23.1379900000      9.3435200000     -3.6036200000
C              21.8526600000      9.9321400000     -3.5807900000
C              18.6599400000      9.2047300000     -3.6963500000
C              18.5197500000     10.2785300000     -4.5945000000
C              17.8724900000     10.1163300000     -5.8187700000
C              17.3370000000      8.8742600000     -6.2048600000
C              17.4814600000      7.8061600000     -5.3092600000
C              18.1333600000      7.9648400000     -4.0806400000
C              16.6220400000      8.7111600000     -7.5347400000
C              19.1399900000     10.7026200000     -1.6331500000
C              17.8301300000     11.2057600000     -1.6081800000
C              17.5100300000     12.3476600000     -0.8686200000
C              18.4816800000     13.0306900000     -0.1206600000
C              19.7889500000     12.5173700000     -0.1392200000
C              20.1119500000     11.3756100000     -0.8759200000
C              24.2670900000      9.7997500000     -4.3363100000
S              24.1757000000     11.2524600000     -5.3289400000
C              25.8595800000     11.1024700000     -5.8233200000
C              26.4369200000      9.9572300000     -5.2359900000
C              25.5676800000      9.2329800000     -4.4157200000
C              19.5556600000      3.4271900000      0.7080400000
C              19.3438100000      3.2214900000     -0.6617800000
C              19.3062400000      1.9312700000     -1.2018800000
C              19.4717600000      0.7959900000     -0.3960000000
C              19.6758400000      1.0054700000      0.9791400000
C              19.7147800000      2.2903800000      1.5206500000
C              20.5582900000      5.0623600000      2.4554700000
C              20.2986000000      5.8897700000      3.5591100000
C              21.2819000000      6.1409900000      4.5190700000
C              22.5670400000      5.5852000000      4.4130300000
C              22.8277400000      4.7704200000      3.3000500000
C              21.8458700000      4.5153200000      2.3390700000
C              26.6312600000     11.9606300000     -6.6491500000
C              26.3733900000     13.1232600000     -7.3714000000
C              25.0436700000     13.7502900000     -7.5857000000
C              25.2433300000     14.8338300000     -8.5870600000
C              26.6058000000     14.9005500000     -8.9304700000
C              27.3546700000     13.8856000000     -8.1374500000
C              27.0165800000     15.8414900000     -9.8782500000
C              26.0614700000     16.6950100000    -10.4536200000
C              24.7026200000     16.6205100000    -10.0887500000
C              24.2899800000     15.6743400000     -9.1399000000
O              25.8346200000      8.1066100000     -3.7268600000
C              27.1498800000      7.5281200000     -3.8142200000
O              23.9745200000     13.4466800000     -7.0691900000
C              28.7488300000     13.7716900000     -8.1095200000
C              29.4829700000     12.9125300000     -7.2318100000
N              30.1558800000     12.2536500000     -6.5404200000
C              18.1308700000     14.2615500000      0.6973400000
C              19.4484000000     -0.6062400000     -0.9787300000
C              23.6382400000      5.8763300000      5.4499400000
O              13.2130800000      6.2846600000      2.8651300000
C              11.8999800000      6.8687300000      2.9463800000
C              10.6521300000      1.4679100000      8.3575200000
C               9.8556800000      0.8514400000      9.3734900000
N               9.1373600000      0.3958100000     10.1739700000
O              15.2340200000      1.2898700000      6.6176500000
C              29.6343800000     14.5434100000     -8.9257300000
N              30.4213800000     15.1284500000     -9.5603400000
C               9.8504900000      2.3271100000      7.5412900000
N               9.1238100000      2.9991300000      6.9205300000
H              16.0606900000     -0.7378900000      8.4952800000
H              11.5205000000     -0.5175800000     10.5469000000
H              11.6948200000      4.9443000000      4.8451000000
H              11.8862700000      7.6547000000      2.1958100000
H              11.7293100000      7.3009700000      3.9345000000
H              11.1316800000      6.1280900000      2.7157800000
H              17.4647600000      3.6298800000      3.3707200000
H              19.1993900000      4.0629900000     -1.3269000000
H              19.1414400000      1.8160400000     -2.2685000000
H              19.8036400000      0.1548900000      1.6414200000
H              19.8741100000      2.4024600000      2.5859100000
H              19.3240000000      6.3453000000      3.6831800000
H              21.0373600000      6.7783900000      5.3630400000
H              22.0910700000      3.8714700000      1.5034600000
H              23.8076100000      4.3195400000      3.1780800000
H              21.1333200000     11.0160000000     -0.8547600000
H              20.5718300000     13.0144200000      0.4251000000
H              17.0478400000     10.7169700000     -2.1755600000
H              16.4869300000     12.7103400000     -0.8832800000
H              18.9143900000     11.2545900000     -4.3402500000
H              17.7864300000     10.9703300000     -6.4833700000
H              18.2258200000      7.1045700000     -3.4306500000
H              17.0835100000      6.8292400000     -5.5651900000
H              17.3134000000      8.3730200000     -0.7184400000
H              21.6536700000      5.8459900000     -0.3393400000
H              21.6099800000     10.8178800000     -4.1469100000
H              17.9605400000     13.9966000000      1.7469400000
H              17.2226800000     14.7425300000      0.3280300000
H              18.9365600000     14.9995300000      0.6747300000
H              15.6584800000      9.2320100000     -7.5272500000
H              16.4296900000      7.6606700000     -7.7611500000
H              17.2111100000      9.1308200000     -8.3552400000
H              27.4681600000      9.6918600000     -5.4129000000
H              28.0420500000     15.9383700000    -10.1944200000
H              23.2508200000     15.6013600000     -8.8493700000
H              27.1185700000      6.6397500000     -3.1886900000
H              27.9031400000      8.2204300000     -3.4326300000
H              27.3789700000      7.2453600000     -4.8437900000
H              19.0008900000     -0.6201500000     -1.9745400000
H              18.8779300000     -1.2893900000     -0.3437600000
H              20.4625300000     -1.0119300000     -1.0651900000
H              23.2091800000      5.9721800000      6.4503400000
H              24.1518700000      6.8176800000      5.2238900000
H              24.3939100000      5.0885600000      5.4793100000
H              11.6234700000      3.2742700000      6.4381900000
H              27.6453000000     11.5926700000     -6.7260700000
Cl             26.6199200000     17.8544400000    -11.6415700000
Cl             23.5004100000     17.6813000000    -10.7907700000
Cl             15.9675900000     -2.5706500000     10.6845000000
Cl             13.0167000000     -2.3739100000     11.9985800000
                                                  
  eps=4.97393                                      
  epsinf=4.97393                                   
  RSolv=8.87                                       
                                                   
