%mem=800MW
%nprocshared=64
%chk=IEICO-4Cl-HSO-w-00001-T2paraS1.chk
%rwf=IEICO-4Cl-HSO-w-00001-T2paraS1.rwf
#p wB97XD/6-31g** td(50-50,nstates=5) 6D 10F nosymm GFInput scf=(MaxCycle=20000) iop(3/107=0000100000,3/108=0000100000) SCRF=(PCM,Solvent=Generic,Read)

IEICO-4Cl

0  1
C              12.3863200000     -0.7093700000      9.9264500000
C              12.7369500000      0.1388900000      8.8736200000
C              14.0358600000      0.0567400000      8.3428900000
C              14.9823600000     -0.8412000000      8.8113000000
C              14.6290500000     -1.6952800000      9.8648300000
C              13.3358600000     -1.6198900000     10.4180900000
C              14.1846800000      1.0668800000      7.2610500000
C              12.8837300000      1.7826500000      7.1636500000
C              11.9741200000      1.1858900000      8.1312300000
C              12.5977600000      2.8623900000      6.3247700000
C              13.3147300000      3.5841700000      5.3385400000
C              12.7062600000      4.6625000000      4.6541600000
C              13.5263900000      5.2759600000      3.7094800000
C              14.8283900000      4.6969400000      3.6266700000
S              14.9662000000      3.3542000000      4.7647900000
C              15.9224300000      5.0735600000      2.8039800000
C              17.2041200000      4.4814600000      2.7794300000
C              18.0688900000      5.0961300000      1.8700000000
C              17.4794100000      6.1523800000      1.1806800000
S              15.8319800000      6.4200900000      1.6389100000
C              18.4113200000      6.7590300000      0.2598600000
C              19.6297500000      6.0289400000      0.3641200000
C              19.5122700000      4.8744500000      1.3940900000
C              20.7389000000      6.4102600000     -0.3762100000
C              20.6102800000      7.5174100000     -1.2345600000
C              19.3845600000      8.2328900000     -1.3562800000
C              18.2809600000      7.8627300000     -0.6025700000
C              19.5147500000      9.4181700000     -2.3480200000
C              20.9965200000      9.2772000000     -2.7268000000
C              21.5644000000      8.1725600000     -2.0984900000
S              23.2225000000      7.9300000000     -2.5337100000
C              23.1679400000      9.3604600000     -3.5966400000
C              21.8856800000      9.9499900000     -3.5686800000
C              18.6848800000      9.2365500000     -3.6482100000
C              18.5473100000     10.3098000000     -4.5473700000
C              17.8885300000     10.1519700000     -5.7662300000
C              17.3371600000      8.9148500000     -6.1454000000
C              17.4782700000      7.8471800000     -5.2487800000
C              18.1417400000      8.0017100000     -4.0257100000
C              16.6067500000      8.7568600000     -7.4675900000
C              19.1869300000     10.7306600000     -1.5902900000
C              17.8777900000     11.2349300000     -1.5518800000
C              17.5656800000     12.3779800000     -0.8105000000
C              18.5452000000     13.0615900000     -0.0736100000
C              19.8519900000     12.5478100000     -0.1058200000
C              20.1668300000     11.4051000000     -0.8447300000
C              24.2890500000      9.8061400000     -4.3452700000
S              24.1751800000     11.2221600000     -5.3925500000
C              25.8655800000     11.0853700000     -5.8732600000
C              26.4615600000      9.9643700000     -5.2494200000
C              25.6044000000      9.2554600000     -4.4096100000
C              19.5767700000      3.4621300000      0.7508700000
C              19.3739200000      3.2579200000     -0.6205500000
C              19.3385900000      1.9683200000     -1.1626100000
C              19.4984700000      0.8317900000     -0.3574600000
C              19.6950900000      1.0394700000      1.0189900000
C              19.7314700000      2.3238500000      1.5622900000
C              20.5751100000      5.0939100000      2.5010600000
C              20.3147600000      5.9153400000      3.6090200000
C              21.2980000000      6.1639900000      4.5697500000
C              22.5840900000      5.6108200000      4.4610300000
C              22.8456500000      4.8017100000      3.3443000000
C              21.8637000000      4.5496200000      2.3824100000
C              26.6240500000     11.9398200000     -6.7101900000
C              26.3406500000     13.0817900000     -7.4641000000
C              24.9899800000     13.6359400000     -7.7539200000
C              25.1809100000     14.7025400000     -8.7753700000
C              26.5521600000     14.8313100000     -9.0569500000
C              27.3119300000     13.8709500000     -8.2047000000
C              26.9607900000     15.7749400000    -10.0015900000
C              25.9924000000     16.5661500000    -10.6411500000
C              24.6231200000     16.4266600000    -10.3420300000
C              24.2136700000     15.4808300000     -9.3918200000
O              25.8829100000      8.1600800000     -3.6838400000
C              27.2090500000      7.5992800000     -3.7380300000
O              23.9158000000     13.2903400000     -7.2777600000
C              28.7089800000     13.8254200000     -8.1098700000
C              29.4373900000     13.0490200000     -7.1538300000
N              30.1040600000     12.4626000000     -6.3946500000
C              18.2029600000     14.2933800000      0.7468000000
C              19.4779600000     -0.5696500000     -0.9425100000
C              23.6550600000      5.8986900000      5.4992200000
O              13.2254400000      6.3103600000      2.9072300000
C              11.9130600000      6.9005900000      2.9814100000
C              10.6197500000      1.4736800000      8.3485100000
C               9.8170900000      0.8508600000      9.3553300000
N               9.0945600000      0.3964200000     10.1526400000
O              15.1981300000      1.2567400000      6.5995900000
C              29.5942000000     14.5948800000     -8.9278400000
N              30.3803500000     15.1805400000     -9.5628300000
C               9.8399500000      2.4023000000      7.5894800000
N               9.1287900000      3.1317000000      7.0174000000
H              15.9709100000     -0.8828500000      8.3747800000
H              11.4124900000     -0.6939100000     10.3867500000
H              11.6903700000      4.9606600000      4.8627900000
H              11.9098700000      7.6908700000      2.2355800000
H              11.7381600000      7.3263700000      3.9712300000
H              11.1449800000      6.1636000000      2.7400800000
H              17.4721500000      3.6486400000      3.4110700000
H              19.2340500000      4.1006700000     -1.2850300000
H              19.1800400000      1.8546500000     -2.2304100000
H              19.8189600000      0.1879400000      1.6808900000
H              19.8857000000      2.4345100000      2.6285300000
H              19.3392600000      6.3683100000      3.7353000000
H              21.0526100000      6.7969500000      5.4168900000
H              22.1096300000      3.9097400000      1.5439100000
H              23.8261800000      4.3527400000      3.2200100000
H              21.1882700000     11.0452800000     -0.8350000000
H              20.6412100000     13.0454000000      0.4492600000
H              17.0893200000     10.7460400000     -2.1106200000
H              16.5425100000     12.7408900000     -0.8146500000
H              18.9537400000     11.2824100000     -4.2983200000
H              17.8056400000     11.0056000000     -6.4318000000
H              18.2314200000      7.1420200000     -3.3745900000
H              17.0680900000      6.8738700000     -5.4993200000
H              17.3481200000      8.4046600000     -0.6693800000
H              21.6782300000      5.8816300000     -0.2946800000
H              21.6385500000     10.8322700000     -4.1384500000
H              18.0365400000     14.0286800000      1.7971200000
H              17.2947200000     14.7779000000      0.3821300000
H              19.0110900000     15.0286200000      0.7207600000
H              15.6372200000      9.2661600000     -7.4416600000
H              16.4229600000      7.7065000000     -7.7018600000
H              17.1792700000      9.1915100000     -8.2918800000
H              27.4973900000      9.7114800000     -5.4165300000
H              27.9947100000     15.9212800000    -10.2669300000
H              23.1666300000     15.3606600000     -9.1493300000
H              27.1878100000      6.7419100000     -3.0705900000
H              27.9478400000      8.3218200000     -3.3862700000
H              27.4462000000      7.2723500000     -4.7522600000
H              19.0301500000     -0.5827500000     -1.9382600000
H              18.9090600000     -1.2552100000     -0.3087200000
H              20.4928600000     -0.9732500000     -1.0302100000
H              23.2259500000      5.9901300000      6.5000300000
H              24.1681500000      6.8413200000      5.2772000000
H              24.4113300000      5.1113200000      5.5255600000
H              11.6055500000      3.2750300000      6.4361900000
H              27.6495900000     11.6014100000     -6.7657100000
Cl             26.5490000000     17.7313800000    -11.8241600000
Cl             23.4033000000     17.4054400000    -11.1283600000
Cl             15.8214500000     -2.8299300000     10.4607100000
Cl             12.8555600000     -2.6571300000     11.7448700000
                                             
  eps=4.97393                                      
  epsinf=4.97393                                   
  RSolv=8.87                                       
                                                   
