%mem=1000MW
%nprocshared=40
#p wB97XD/6-31g** nosymm pop=esp opt td=(triplet,nstates=2,root=1) scf=(MaxCycle=20000) iop(3/107=0016000000,3/108=0016000000) SCRF=(PCM,Solvent=Generic,Read)

 Y6 opt-TDdft

0 1
C         -0.02880        0.38405        0.05263
C          0.07358        0.17209        1.43317
C          1.28496        0.45229        2.09249
C          2.41251        0.91817        1.42150
C          2.30219        1.12064        0.05189
C          1.09205        0.86253       -0.61683
C         -0.89877       -0.34797        2.42511
C         -0.30085       -0.15963        3.75736
C          1.13269        0.19971        3.54844
C         -1.01073       -0.11506        4.93596
C         -0.65569        0.04638        6.31091
S          0.98155       -0.08214        6.97904
C          0.35766        0.05216        8.58784
C         -1.03773        0.23447        8.59410
C         -1.63221        0.23322        7.32003
S         -1.71863        0.43262       10.21796
C         -0.11113        0.27120       10.88019
C          0.88520        0.08381        9.89827
N          2.11650       -0.06148       10.50031
C          1.91785        0.06505       11.87597
C          0.51374        0.22842       12.13074
C          2.83482        0.08830       12.95317
C          2.35075       -0.01528       14.30867
C          0.93716        0.04167       14.57711
C          0.01567        0.23394       13.48119
N          4.22579        0.16538       12.97280
C          4.62281        0.03882       14.28881
C          3.47557       -0.07822       15.12458
C          5.82092        0.02805       15.00746
C          5.59036       -0.10798       16.39672
S          3.87312       -0.21574       16.81918
C          6.75255       -0.14683       17.19232
C          7.89766       -0.01998       16.39549
S          7.52942        0.09756       14.67480
N         -1.25271        0.33830       13.85839
S         -1.26866        0.19347       15.50673
N          0.35354       -0.00393       15.76801
C          9.30388       -0.11239       16.81436
C         10.11718        0.94424       17.14841
C         11.50413        0.95857       17.55494
C         11.87785        2.36211       17.81368
C         10.76951        3.20745       17.57264
C          9.62326        2.37165       17.14947
C         10.81499        4.58677       17.72955
C         12.01743        5.15323       18.14424
C         13.12664        4.33501       18.38915
C         13.08160        2.94988       18.23275
F         14.27728        4.91037       18.78954
F         12.12427        6.48971       18.31404
C         12.37381       -0.16361       17.68710
C         13.73287       -0.07214       18.08936
N         14.85812       -0.05766       18.41564
O          8.50024        2.76210       16.86067
C          6.77623       -0.29187       18.69191
C          5.08877        0.78863       11.95496
C          3.24572       -0.72615        9.82901
C         -3.11425        0.40351        7.08546
O          2.01086        0.30349        4.39220
C         -2.07720       -1.00608        2.12860
C         -2.59789       -1.14986        0.80121
N         -3.07579       -1.29344       -0.25196
F          3.34569        1.57471       -0.65387
F          1.02777        1.08899       -1.93534
C         11.98877       -1.50515       17.42632
N         11.72777       -2.63019       17.22495
C         -2.87538       -1.69436        3.10116
N         -3.55319       -2.29915        3.83134
H         13.97793        2.38715       18.44143
H          9.95064        5.20932       17.53874
H          9.69285       -1.12271       16.83163
H          7.80005       -0.34928       19.05724
H          6.24991       -1.19797       19.00360
H          6.29119        0.56302       19.17062
H          5.66587        1.58439       12.42331
H          4.46924        1.24083       11.18763
H          5.76497        0.05999       11.51146
H          2.85931       -1.51422        9.18460
H          3.88204       -1.19558       10.57213
H          3.82289       -0.02133        9.23274
H         -3.32005        1.07605        6.25202
H         -3.59648        0.82646        7.96627
H         -3.58925       -0.55816        6.87883
H         -2.08388       -0.19456        4.81749
H          3.34241        1.12090        1.93527
H         -0.93018        0.21353       -0.51494

  eps=3.36
  epsinf=3.36
  RSolv=7.28

