%mem=1000MW
%nprocshared=40
#p wB97XD/6-31g** nosymm pop=esp opt td=(triplet,nstates=2,root=1) scf=(MaxCycle=20000) iop(3/107=0016000000,3/108=0016000000) SCRF=(PCM,Solvent=Generic,Read)

 Y6 opt-TDdft

0 1
C         -0.02944        0.38325        0.05184
C          0.07306        0.17173        1.43243
C          1.28451        0.45206        2.09152
C          2.41202        0.91764        1.42026
C          2.30157        1.11969        0.05059
C          1.09135        0.86145       -0.61790
C         -0.89919       -0.34795        2.42475
C         -0.30102       -0.15953        3.75678
C          1.13234        0.19999        3.54762
C         -1.01076       -0.11500        4.93557
C         -0.65580        0.04646        6.31043
S          0.98155       -0.08145        6.97877
C          0.35754        0.05231        8.58748
C         -1.03783        0.23404        8.59375
C         -1.63230        0.23273        7.31959
S         -1.71870        0.43169       10.21765
C         -0.11108        0.27100       10.87985
C          0.88508        0.08409        9.89815
N          2.11650       -0.06083       10.50021
C          1.91775        0.06539       11.87581
C          0.51401        0.22834       12.13066
C          2.83502        0.08833       12.95337
C          2.35098       -0.01575       14.30851
C          0.93745        0.04064       14.57700
C          0.01592        0.23321       13.48107
N          4.22572        0.16636       12.97272
C          4.62312        0.03994       14.28890
C          3.47601       -0.07783       15.12459
C          5.82108        0.02946       15.00739
C          5.59065       -0.10728       16.39695
S          3.87325       -0.21569       16.81904
C          6.75232       -0.14643       17.19223
C          7.89860       -0.01909       16.39542
S          7.52960        0.09970       14.67458
N         -1.25252        0.33708       13.85833
S         -1.26847        0.19147       15.50657
N          0.35378       -0.00558       15.76788
C          9.30326       -0.11224       16.81485
C         10.11788        0.94469       17.14935
C         11.50394        0.95826       17.55566
C         11.87897        2.36259       17.81488
C         10.77086        3.20757       17.57403
C          9.62426        2.37108       17.15101
C         10.81644        4.58673       17.73095
C         12.01930        5.15294       18.14556
C         13.12827        4.33483       18.39025
C         13.08269        2.94942       18.23367
F         14.27918        4.90966       18.79051
F         12.12612        6.48929       18.31532
C         12.37334       -0.16338       17.68781
C         13.73250       -0.07213       18.09032
N         14.85766       -0.05799       18.41662
O          8.50114        2.76186       16.86283
C          6.77622       -0.29229       18.69167
C          5.08808        0.79044       11.95490
C          3.24595       -0.72489        9.82878
C         -3.11445        0.40231        7.08514
O          2.01073        0.30413        4.39114
C         -2.07789       -1.00581        2.12848
C         -2.59899       -1.14937        0.80125
N         -3.07736       -1.29285       -0.25174
F          3.34506        1.57349       -0.65542
F          1.02692        1.08753       -1.93650
C         11.98786       -1.50495       17.42681
N         11.72633       -2.62981       17.22563
C         -2.87598       -1.69397        3.10118
N         -3.55394       -2.29861        3.83136
H         13.97889        2.38638       18.44214
H          9.95224        5.20953       17.54036
H          9.69159       -1.12283       16.83211
H          7.80005       -0.35021       19.05683
H          6.24952       -1.19832       19.00287
H          6.29142        0.56254       19.17073
H          5.66453        1.58667       12.42327
H          4.46810        1.24217       11.18763
H          5.76488        0.06243       11.51126
H          2.85985       -1.51300        9.18422
H          3.88252       -1.19420       10.57176
H          3.82282       -0.01975        9.23257
H         -3.32064        1.07523        6.25209
H         -3.59691        0.82446        7.96622
H         -3.58893       -0.55949        6.87793
H         -2.08392       -0.19455        4.81713
H          3.34198        1.12048        1.93387
H         -0.93089        0.21258       -0.51558

  eps=3.36
  epsinf=3.36
  RSolv=7.28

