%mem=1000MW
%nprocshared=40
#p wB97XD/6-31g** nosymm pop=esp opt td=(nstates=2,root=1) scf=(MaxCycle=20000) iop(3/107=0016000000,3/108=0016000000) SCRF=(PCM,Solvent=Generic,Read)

 Y6 opt-TDdft

0 1
C         -0.02927        0.38323        0.05198
C          0.07319        0.17173        1.43257
C          1.28458        0.45223        2.09172
C          2.41206        0.91795        1.42051
C          2.30164        1.11998        0.05084
C          1.09150        0.86158       -0.61772
C         -0.89904       -0.34806        2.42484
C         -0.30097       -0.15950        3.75689
C          1.13237        0.20011        3.54781
C         -1.01076       -0.11495        4.93565
C         -0.65582        0.04658        6.31051
S          0.98155       -0.08126        6.97883
C          0.35755        0.05257        8.58754
C         -1.03782        0.23434        8.59381
C         -1.63230        0.23295        7.31966
S         -1.71866        0.43218       10.21769
C         -0.11106        0.27131       10.87990
C          0.88509        0.08433        9.89820
N          2.11650       -0.06069       10.50027
C          1.91774        0.06553       11.87586
C          0.51401        0.22858       12.13070
C          2.83501        0.08835       12.95343
C          2.35095       -0.01572       14.30857
C          0.93742        0.04081       14.57705
C          0.01592        0.23348       13.48112
N          4.22572        0.16620       12.97279
C          4.62309        0.03970       14.28898
C          3.47596       -0.07797       15.12466
C          5.82106        0.02901       15.00747
C          5.59059       -0.10770       16.39702
S          3.87318       -0.21601       16.81910
C          6.75226       -0.14683       17.19233
C          7.89855       -0.01949       16.39555
S          7.52959        0.09893       14.67468
N         -1.25251        0.33746       13.85838
S         -1.26849        0.19184       15.50662
N          0.35374       -0.00543       15.76792
C          9.30321       -0.11252       16.81499
C         10.11779        0.94453       17.14925
C         11.50388        0.95825       17.55550
C         11.87883        2.36264       17.81453
C         10.77065        3.20752       17.57358
C          9.62414        2.37091       17.15058
C         10.81613        4.58669       17.73036
C         12.01894        5.15304       18.14492
C         13.12796        4.33505       18.38969
C         13.08250        2.94962       18.23326
F         14.27884        4.91000       18.78989
F         12.12565        6.48942       18.31451
C         12.37337       -0.16331       17.68779
C         13.73252       -0.07192       18.09028
N         14.85767       -0.05789       18.41664
O          8.50093        2.76157       16.86255
C          6.77613       -0.29259       18.69179
C          5.08817        0.79017       11.95498
C          3.24590       -0.72484        9.82883
C         -3.11444        0.40259        7.08521
O          2.01067        0.30447        4.39140
C         -2.07762       -1.00610        2.12852
C         -2.59860       -1.14981        0.80126
N         -3.07681       -1.29337       -0.25180
F          3.34511        1.57392       -0.65513
F          1.02710        1.08763       -1.93633
C         11.98803       -1.50495       17.42696
N         11.72688       -2.62988       17.22565
C         -2.87567       -1.69436        3.10118
N         -3.55346       -2.29915        3.83139
H         13.97874        2.38668       18.44180
H          9.95189        5.20942       17.53968
H          9.69153       -1.12309       16.83246
H          7.79994       -0.35051       19.05697
H          6.24939       -1.19859       19.00303
H          6.29132        0.56228       19.17077
H          5.66469        1.58634       12.42335
H          4.46826        1.24195       11.18770
H          5.76490        0.06207       11.51137
H          2.85975       -1.51294        9.18429
H          3.88246       -1.19416       10.57182
H          3.82280       -0.01974        9.23260
H         -3.32060        1.07550        6.25214
H         -3.59689        0.82477        7.96627
H         -3.58896       -0.55919        6.87801
H         -2.08391       -0.19455        4.81719
H          3.34197        1.12091        1.93417
H         -0.93067        0.21245       -0.51549

  eps=3.36
  epsinf=3.36
  RSolv=7.28

