%mem=1000MW
%nprocshared=40
#p wB97XD/6-31g** nosymm pop=esp opt td=(triplet,nstates=2,root=1) scf=(MaxCycle=20000) iop(3/107=0016000000,3/108=0016000000) SCRF=(PCM,Solvent=Generic,Read)

 Y6 opt-TDdft

0 1
C          0.05390        0.59715        0.11043
C          0.14470        0.35292        1.48645
C          1.34895        0.62289        2.16310
C          2.47997        1.11029        1.51367
C          2.38096        1.34516        0.14834
C          1.17818        1.09714       -0.53718
C         -0.83360       -0.19555        2.45724
C         -0.24701       -0.03977        3.79827
C          1.18559        0.33358        3.61124
C         -0.96615       -0.03320        4.97243
C         -0.62288        0.08652        6.35412
S          1.00933       -0.05062        7.03279
C          0.37019        0.02636        8.63949
C         -1.02701        0.19595        8.63887
C         -1.60970        0.23264        7.36015
S         -1.72483        0.32906       10.26199
C         -0.12260        0.15588       10.93338
C          0.88508        0.01540        9.95564
N          2.11139       -0.14090       10.56524
C          1.89739       -0.07189       11.94251
C          0.48950        0.06794       12.18806
C          2.80229       -0.08573       13.03125
C          2.30295       -0.25537       14.37428
C          0.88589       -0.22533       14.62813
C         -0.02440        0.00919       13.53121
N          4.19143        0.01078       13.07291
C          4.57400       -0.16573       14.38771
C          3.41822       -0.33816       15.20158
C          5.76212       -0.18184       15.12259
C          5.51551       -0.38077       16.50187
S          3.79519       -0.54150       16.89409
C          6.66561       -0.42189       17.31338
C          7.81928       -0.22625       16.54157
S          7.47308       -0.04948       14.82074
N         -1.29799        0.08558       13.89746
S         -1.33190       -0.13559       15.53724
N          0.28905       -0.33084       15.80861
C          9.22035       -0.27703       16.98011
C          9.96843        0.79968       17.39735
C         11.34266        0.86565       17.83746
C         11.63618        2.27346       18.17346
C         10.48587        3.06739       17.95870
C          9.39597        2.19384       17.46798
C         10.45059        4.43657       18.18810
C         11.61360        5.04579       18.65192
C         12.76424        4.27926       18.86969
C         12.80006        2.90375       18.63950
F         13.87513        4.89636       19.31703
F         11.64283        6.37490       18.89368
C         12.26579       -0.21513       17.94100
C         13.60577       -0.07615       18.39144
N         14.71838       -0.02292       18.75469
O          8.25802        2.53773       17.17784
C          6.66935       -0.62470       18.80632
C          5.06150        0.67997       12.09120
C          3.25830       -0.75772        9.87933
C         -3.08957        0.40483        7.11307
O          2.05576        0.42245        4.46503
C         -2.00734       -0.85000        2.13437
C         -2.51923       -0.95734        0.80021
N         -2.99067       -1.07216       -0.25941
F          3.42875        1.82046       -0.53688
F          1.12434        1.35486       -1.85047
C         11.95471       -1.56074       17.61045
N         11.75420       -2.68646       17.35210
C         -2.80835       -1.57059        3.08077
N         -3.48779       -2.20131        3.78714
H         13.72502        2.38211       18.82911
H          9.55457        5.01842       18.01610
H          9.66433       -1.26348       16.93664
H          7.68758       -0.70336       19.18321
H          6.13252       -1.53782       19.07628
H          6.18389        0.21539       19.31023
H          5.63368        1.45408       12.60004
H          4.44935        1.16744       11.33965
H          5.74280       -0.02692       11.62106
H          2.89122       -1.51945        9.19338
H          3.89075       -1.25406       10.60805
H          3.83312       -0.01761        9.32497
H         -3.28514        1.15617        6.34650
H         -3.59755        0.72948        8.02038
H         -3.54713       -0.53541        6.79832
H         -2.03815       -0.11285        4.84324
H          3.40438        1.30501        2.04030
H         -0.84111        0.43571       -0.46976

  eps=3.36
  epsinf=3.36
  RSolv=7.28

