%mem=1000MW
%nprocshared=40
#p wB97XD/6-31g** nosymm pop=esp opt td=(triplet,nstates=2,root=1) scf=(MaxCycle=20000) iop(3/107=0016000000,3/108=0016000000) SCRF=(PCM,Solvent=Generic,Read)

 Y6 opt-TDdft

0 1
C          0.07172        0.62035        0.11905
C          0.16004        0.37026        1.49420
C          1.36192        0.64087        2.17487
C          2.49295        1.13466        1.53027
C          2.39637        1.37546        0.16581
C          1.19591        1.12681       -0.52362
C         -0.81880       -0.18555        2.46021
C         -0.23572       -0.03403        3.80335
C          1.19630        0.34433        3.62125
C         -0.95762       -0.03422        4.97571
C         -0.61767        0.08153        6.35873
S          1.01324       -0.05397        7.04039
C          0.37046        0.01745        8.64595
C         -1.02720        0.18400        8.64278
C         -1.60717        0.22253        7.36294
S         -1.72882        0.31222       10.26471
C         -0.12764        0.14117       10.93905
C          0.88259        0.00468        9.96295
N          2.10790       -0.15014       10.57473
C          1.89103       -0.08377       11.95180
C          0.48187        0.05261       12.19454
C          2.79329       -0.09663       13.04220
C          2.29118       -0.26788       14.38440
C          0.87345       -0.24118       14.63518
C         -0.03493       -0.00846       13.53647
N          4.18243        0.00163       13.08748
C          4.56189       -0.17528       14.40284
C          3.40445       -0.34955       15.21406
C          5.74866       -0.19117       15.14032
C          5.49907       -0.38911       16.51886
S          3.77826       -0.55247       16.90755
C          6.64786       -0.42571       17.33353
C          7.80175       -0.22979       16.56397
S          7.46000       -0.05832       14.84214
N         -1.30951        0.06448       13.89985
S         -1.34652       -0.15763       15.53946
N          0.27432       -0.34884       15.81428
C          9.20304       -0.27977       17.00635
C          9.95982        0.80046       17.39414
C         11.33667        0.86664       17.82883
C         11.63820        2.27739       18.13953
C         10.49293        3.07531       17.91052
C          9.39663        2.20069       17.43802
C         10.46672        4.44872       18.11556
C         11.63346        5.05865       18.56832
C         12.77913        4.28828       18.80027
C         12.80619        2.90900       18.59482
F         13.89385        4.90616       19.23710
F         11.67148        6.39176       18.78651
C         12.25507       -0.21774       17.94510
C         13.59801       -0.07854       18.38602
N         14.71296       -0.02512       18.74229
O          8.26021        2.54629       17.14414
C          6.64837       -0.62416       18.82723
C          5.05463        0.67201       12.10842
C          3.25756       -0.76296        9.88975
C         -3.08681        0.39198        7.11262
O          2.06430        0.43147        4.47737
C         -1.98981       -0.84205        2.13191
C         -2.49890       -0.94407        0.79624
N         -2.96815       -1.05478       -0.26477
F          3.44427        1.85692       -0.51483
F          1.14429        1.39040       -1.83580
C         11.93688       -1.56620       17.63441
N         11.73040       -2.69460       17.39254
C         -2.79020       -1.57004        3.07316
N         -3.46865       -2.20662        3.77520
H         13.72751        2.38485       18.79482
H          9.57442        5.03315       17.93324
H          9.63752       -1.27129       16.99354
H          7.66613       -0.68669       19.20848
H          6.12408       -1.54441       19.09781
H          6.14863        0.21005       19.32705
H          5.62591        1.44525       12.61954
H          4.44421        1.16077       11.35630
H          5.73682       -0.03439       11.63882
H          2.89342       -1.52386        9.20134
H          3.88951       -1.25970       10.61860
H          3.83188       -0.02029        9.33832
H         -3.28211        1.14816        6.35071
H         -3.59869        0.70852        8.02059
H         -3.54056       -0.54729        6.78962
H         -2.02909       -0.11653        4.84389
H          3.41556        1.32982        2.05989
H         -0.82137        0.45860       -0.46404

  eps=3.36
  epsinf=3.36
  RSolv=7.28

