%mem=800MW
%nprocshared=32
%chk=IT-4Cl-HSO-scan-90-T2toS1.chk
%rwf=IT-4Cl-HSO-scan-90-T2t0S1.rwf
#p wB97XD/6-31g** td(50-50,nstates=5) 6D 10F nosymm GFInput scf=(MaxCycle=20000) iop(3/107=0001100000,3/108=0001100000) SCRF=(PCM,Solvent=Generic,Read)

IT-4Cl-scan-9  HSO

0  1
C               0.5721600000     -0.2767800000      0.0768700000
C               0.4551800000     -0.1601300000      1.4694500000
C               1.6376100000     -0.1937400000      2.2278900000
C               2.8843300000     -0.3266700000      1.6143300000
C               3.0056000000     -0.4364400000      0.2191200000
C               1.8223500000     -0.4087200000     -0.5342500000
C              -0.9334200000     -0.1300800000      2.1632900000
C              -2.0722800000      0.3046800000      1.2292000000
C              -2.9552300000     -0.7519800000      1.0028000000
C              -2.5251000000     -1.9457100000      1.6936800000
C              -1.3488600000     -1.6034300000      2.4166400000
S              -4.3218800000     -0.3567200000     -0.0069700000
C              -3.7099200000      1.2896800000     -0.1487700000
C              -2.5024500000      1.4733600000      0.5772000000
C              -4.1785600000      2.4169500000     -0.8158500000
C              -3.3316300000      3.5349200000     -0.6266700000
S              -1.9442100000      3.1153900000      0.4185200000
C              -0.7036700000     -2.5550700000      3.1917200000
C              -1.2454100000     -3.8528800000      3.2237800000
C              -2.4105200000     -4.2003300000      2.4838100000
C              -3.0619900000     -3.2450000000      1.7180300000
C              -0.8135100000     -5.0445200000      3.9116800000
C              -1.6322700000     -6.1336900000      3.5950900000
C              -2.7553900000     -5.7053200000      2.6388000000
S               0.4766700000     -5.4066700000      5.0316900000
C              -0.0796300000     -7.0790400000      5.0875900000
C              -1.2181400000     -7.2949800000      4.2651600000
S              -1.7251700000     -8.9688000000      4.3232600000
C              -0.4202600000     -9.3628800000      5.4636900000
C               0.3650200000     -8.2091800000      5.7561500000
C              -3.4448400000      4.8818600000     -1.0410400000
C              -4.2638100000      5.4892500000     -2.0035600000
C              -4.9259100000      4.8162700000     -3.1716200000
C              -5.3507000000      5.9123900000     -4.0870600000
C              -5.0402100000      7.1555900000     -3.5088700000
C              -4.4207000000      6.9203300000     -2.1758400000
C              -5.9619700000      5.7969600000     -5.3260100000
C              -6.2725000000      6.9684100000     -6.0298000000
C              -5.9648300000      8.2230800000     -5.4664500000
C              -5.3526200000      8.3238600000     -4.2064300000
Cl             -7.0361000000      6.8242300000     -7.5975000000
Cl             -6.3317600000      9.7102000000     -6.3127200000
O              -5.0677700000      3.6212200000     -3.3846600000
C              -4.1374000000      7.9139300000     -1.2272000000
C              -4.2270100000      9.3161900000     -1.4879500000
N              -4.2658300000     10.4740300000     -1.6354300000
C              -0.9848300000      0.7529800000      3.4378200000
C              -0.2717200000      1.9616000000      3.5061400000
C              -0.3743600000      2.7982200000      4.6185400000
C              -1.1972200000      2.4687500000      5.7086300000
C              -1.9194300000      1.2690000000      5.6306100000
C              -1.8197700000      0.4290300000      4.5172000000
C              -2.6437700000     -6.3564000000      1.2344700000
C              -3.7338900000     -6.3507600000      0.3486500000
C              -3.6137000000     -6.8604300000     -0.9461100000
C              -2.4012600000     -7.3916600000     -1.4141600000
C              -1.3103900000     -7.3825500000     -0.5309800000
C              -1.4268100000     -6.8719800000      0.7640000000
C              -4.1138000000     -5.9524400000      3.3476800000
C              -4.7944800000     -7.1710400000      3.2011700000
C              -5.9742500000     -7.4277700000      3.9044600000
C              -6.5187500000     -6.4836300000      4.7884400000
C              -5.8274700000     -5.2711400000      4.9435100000
C              -4.6486700000     -5.0106700000      4.2413400000
C              -0.1296400000    -10.6001000000      6.0854300000
C              -0.6471000000    -11.8962400000      5.9884600000
C              -1.6303900000    -12.3885900000      4.9750000000
C              -1.6500700000    -13.8706300000      5.0958300000
C              -0.7932700000    -14.2605000000      6.1409400000
C              -0.2179500000    -13.0400800000      6.7723600000
C              -0.6309800000    -15.6217700000      6.4071300000
C              -1.3307400000    -16.5586100000      5.6290500000
C              -2.1975100000    -16.1485900000      4.5965300000
C              -2.3584700000    -14.7823600000      4.3288400000
C              -2.2800500000     -7.9839000000     -2.8069600000
C              -7.8179900000     -6.7498600000      5.5278000000
O              -2.2857700000    -11.7242900000      4.1848400000
C               0.5320500000    -13.0287700000      7.9598600000
C               0.9680300000    -14.2068200000      8.6410500000
N               1.3659300000    -15.1227500000      9.2469200000
Cl             -1.0863400000    -18.2546200000      5.9854000000
Cl             -3.0833700000    -17.3019100000      3.6234700000
C              -1.2808800000      3.3761700000      6.9232500000
C               4.3663900000     -0.5574100000     -0.4439000000
C               0.9000700000    -11.8482100000      8.6781100000
N               1.2210000000    -10.9354500000      9.3326900000
C              -3.7915600000      7.6505500000      0.1360300000
N              -3.5324700000      7.5202200000      1.2672700000
H              -6.1920700000      4.8262500000     -5.7433500000
H              -5.1366800000      9.3064600000     -3.8199400000
H              -2.7601000000      5.5524100000     -0.5370900000
H              -5.0799000000      2.4659200000     -1.4016900000
H               0.1891100000     -2.3147300000      3.7510400000
H              -3.9511700000     -3.4861000000      1.1533100000
H               1.2061700000     -8.2406900000      6.4333700000
H               0.7013200000    -10.4952000000      6.7698900000
H               0.0223400000    -15.9882700000      7.1819000000
H              -3.0186400000    -14.4493700000      3.5397300000
H              -2.4029200000     -0.4831200000      4.5026200000
H               3.7740000000     -0.3456200000      2.2361600000
H               1.5951000000     -0.1093400000      3.3066100000
H               1.8691900000     -0.4949300000     -1.6152000000
H              -0.3118100000     -0.2737400000     -0.5484600000
H              -2.5731500000      0.9778000000      6.4466600000
H               0.1964800000      3.7212700000      4.6338900000
H               0.3832400000      2.2545300000      2.6958200000
H              -4.6919700000     -5.9574200000      0.6650200000
H              -4.4821700000     -6.8438600000     -1.5971800000
H              -0.5526300000     -6.8784500000      1.4026700000
H              -0.3528500000     -7.7798200000     -0.8525400000
H              -4.1487400000     -4.0638000000      4.4020300000
H              -6.2084900000     -4.5158800000      5.6237500000
H              -6.4706400000     -8.3819500000      3.7597200000
H              -4.4156200000     -7.9306200000      2.5299500000
H              -1.4955900000      4.4084400000      6.6320500000
H              -2.0600300000      3.0529800000      7.6160300000
H              -0.3315900000      3.3842600000      7.4694200000
H               4.2917600000     -1.0212500000     -1.4297500000
H               4.8243800000      0.4291600000     -0.5769800000
H               5.0517800000     -1.1564800000      0.1608200000
H              -7.9795600000     -7.8188800000      5.6824300000
H              -7.8294100000     -6.2611100000      6.5048300000
H              -8.6733700000     -6.3663700000      4.9601400000
H              -3.0167900000     -7.5573500000     -3.4913600000
H              -1.2870500000     -7.8134600000     -3.2298700000
H              -2.4433300000     -9.0672300000     -2.7814900000
                                                
  eps=4.88617                                      
  epsinf=4.88617                                   
  RSolv=8.36                                       
  
