%mem=1000MW
%nprocshared=40
%Oldchk=IT-4Cl-TDDFT-T-scan-90.chk
%chk=IT-4Cl-NTO-T2-scan-90.chk
#p wB97XD/6-31g** Geom=AllCheck Guess=(Read,Only) Density=(Check,Transition=2) Pop=(Minimal,NTO,SaveNTO)

0 1
