%mem=1000MW
%nprocshared=40
#p wB97XD/6-31g** nosymm pop=esp opt td=(triplet,nstates=2,root=1) scf=(MaxCycle=20000) iop(3/107=0016000000,3/108=0016000000) SCRF=(PCM,Solvent=Generic,Read)

 Y6 opt-TDdft

0 1
C          0.03558        0.62408        0.04901
C          0.10507        0.41699        1.43091
C          1.25492        0.82220        2.13145
C          2.34794        1.41314        1.50754
C          2.26910        1.61459        0.13365
C          1.12320        1.22898       -0.57763
C         -0.84196       -0.20979        2.39474
C         -0.29015       -0.03665        3.72988
C          1.07848        0.52637        3.57750
C         -0.99952       -0.20614        4.92301
C         -0.66326       -0.13911        6.29205
S          0.97363       -0.00104        6.97295
C          0.34063       -0.14397        8.59141
C         -1.07532       -0.24644        8.58472
C         -1.66028       -0.24340        7.32500
S         -1.77403       -0.33491       10.21818
C         -0.16167       -0.22820       10.88579
C          0.85159       -0.12423        9.88923
N          2.09207       -0.06641       10.49662
C          1.87829       -0.09606       11.88176
C          0.45920       -0.24328       12.12780
C          2.76636        0.04184       12.95938
C          2.31674       -0.23615       14.30739
C          0.92071       -0.48079       14.56610
C         -0.02514       -0.42385       13.47270
N          4.12822        0.37250       13.00043
C          4.54096        0.24576       14.31375
C          3.43343       -0.13476       15.12619
C          5.71790        0.41121       15.04346
C          5.52044        0.15905       16.42660
S          3.84623       -0.29958       16.81749
C          6.65307        0.29973       17.21786
C          7.79679        0.66846       16.42435
S          7.36912        0.85978       14.70916
N         -1.28603       -0.60444       13.84319
S         -1.26927       -0.83977       15.48472
N          0.36274       -0.70995       15.74760
C          9.08881        0.77673       16.98266
C         10.33322        1.19330       16.49723
C         11.58242        1.15756       17.24262
C         12.56970        1.99924       16.51001
C         11.98949        2.42194       15.30148
C         10.59708        1.90932       15.21969
C         12.66817        3.19913       14.36977
C         13.97282        3.57105       14.67548
C         14.56398        3.16526       15.88086
C         13.88369        2.37724       16.80719
F         15.82224        3.55225       16.14336
F         14.68251        4.32673       13.82220
C         11.87271        0.40950       18.38429
C         13.10868        0.49039       19.09816
N         14.08718        0.51663       19.73378
O          9.83351        2.07871       14.27734
C          6.68837        0.09544       18.71192
C          4.83961        1.23508       12.04411
C          3.31786       -0.48513        9.79823
C         -3.14384       -0.33439        7.06734
O          1.90928        0.73749        4.45215
C         -1.99092       -0.91371        2.03381
C         -2.50470       -0.97104        0.70082
N         -2.98467       -1.04874       -0.36014
F          3.28734        2.18539       -0.52987
F          1.08051        1.45166       -1.90059
C         11.00685       -0.58313       18.94156
N         10.37599       -1.43062       19.43732
C         -2.75595       -1.72595        2.92877
N         -3.41074       -2.43453        3.58534
H         14.39846        2.10318       17.71439
H         12.20908        3.50951       13.44085
H          9.09228        0.48470       18.02462
H          7.26259       -0.79484       18.97659
H          5.68312       -0.02993       19.11332
H          7.13755        0.95233       19.21908
H          5.24593        2.09728       12.57196
H          4.13880        1.60652       11.30316
H          5.64967        0.69781       11.55264
H          3.07525       -1.28886        9.10397
H          4.02835       -0.87685       10.51968
H          3.76415        0.34319        9.24968
H         -3.40378       -1.27731        6.58227
H         -3.48777        0.48208        6.42817
H         -3.70499       -0.27835        7.99952
H         -2.05332       -0.41152        4.78727
H          3.23025        1.71043        2.05834
H         -0.81356        0.35218       -0.55819

  eps=3.36
  epsinf=3.36
  RSolv=7.28

