%mem=800MW
%nprocshared=64
%chk=IT-4F-HSO-w-0001-S1paraT2.chk
%rwf=IT-4F-HSO-w-0001-S1paraT2.rwf
#p wB97XD/6-31g** td(50-50,nstates=5) 6D 10F nosymm GFInput scf=(MaxCycle=20000) iop(3/107=0001000000,3/108=0001000000) SCRF=(PCM,Solvent=Generic,Read)

IT-4F

0  1
C               0.2939900000      0.1813100000     -0.0125300000
C               0.2224900000      0.1242400000      1.3891800000
C               1.4256900000      0.2013100000      2.1058900000
C               2.6525000000      0.3146200000      1.4474600000
C               2.7290500000      0.3646600000      0.0470600000
C               1.5217300000      0.2972300000     -0.6672200000
C              -1.1482000000      0.1062000000      2.1164200000
C              -1.0483600000     -0.3131000000      3.5879200000
C              -1.3655700000      0.7689400000      4.4335200000
C              -1.6722300000      1.9348800000      3.6867300000
C              -1.5924700000      1.5816800000      2.2936000000
S              -1.3209100000      0.3804200000      6.1398600000
C              -0.8745100000     -1.2738700000      5.7239200000
C              -0.7736000000     -1.4730700000      4.3198200000
C              -0.6101700000     -2.4086600000      6.4794000000
C              -0.2919300000     -3.5359100000      5.6798700000
S              -0.3260100000     -3.1202200000      3.9508600000
C              -2.0125700000      3.2481600000      4.0999800000
C              -2.2764800000      4.1823900000      3.1258400000
C              -2.2158200000      3.8240300000      1.7332400000
C              -1.8680400000      2.5128200000      1.3198400000
C              -2.6323800000      5.6819100000      3.3014000000
C              -2.7746800000      6.0890900000      1.8297500000
C              -2.5472100000      4.9830200000      0.9863200000
S              -2.7313400000      5.3332900000     -0.7189300000
C              -3.1185700000      7.0028600000     -0.3064000000
C              -3.0976900000      7.2355200000      1.0961700000
S              -3.4736900000      8.9017100000      1.4600900000
C              -3.6557700000      9.2758800000     -0.2691600000
C              -3.4290100000      8.1242000000     -1.0644100000
C              -0.0294900000     -4.7929000000      6.2909900000
C               0.3024700000     -6.0617300000      5.8263200000
C               0.5827100000     -6.4335700000      4.4123100000
C               0.9935400000     -7.8598800000      4.4192400000
C               0.9499600000     -8.3487400000      5.7386300000
C               0.4979500000     -7.2565100000      6.6458800000
C               1.3691200000     -8.6419100000      3.3322200000
C               1.7151400000     -9.9658900000      3.5833400000
C               1.6760100000    -10.4727900000      4.8913800000
C               1.2968800000     -9.6855400000      5.9775100000
O               0.5066000000     -5.7206100000      3.4189800000
C               0.2853800000     -7.4104700000      8.0200100000
C               0.5477700000     -8.6176700000      8.7414300000
N               0.7411200000     -9.5605800000      9.4029700000
C              -2.2255800000     -0.7815200000      1.4396300000
C              -1.8770300000     -1.9699700000      0.7785300000
C              -2.8558500000     -2.8159100000      0.2528400000
C              -4.2226100000     -2.5164400000      0.3720100000
C              -4.5675700000     -1.3333600000      1.0445500000
C              -3.5913400000     -0.4842500000      1.5708500000
C              -4.0061000000      5.9024200000      3.9908500000
C              -4.3145600000      7.1177900000      4.6202700000
C              -5.5779400000      7.3423800000      5.1743800000
C              -6.5857400000      6.3682800000      5.1165400000
C              -6.2786000000      5.1590200000      4.4703200000
C              -5.0185100000      4.9315500000      3.9151800000
C              -1.4393400000      6.3677600000      4.0167700000
C              -1.3559900000      6.3950900000      5.4187600000
C              -0.2421100000      6.9359100000      6.0637200000
C               0.8373900000      7.4678600000      5.3393600000
C               0.7572400000      7.4241300000      3.9391200000
C              -0.3548800000      6.8815600000      3.2902400000
C              -3.9609700000     10.5204600000     -0.8855800000
C              -4.2362900000     11.8041300000     -0.4257000000
C              -4.5118000000     12.9734700000     -1.2586600000
C              -4.9340900000     14.0763000000     -0.3508700000
C              -4.8384200000     13.6331500000      0.9819400000
C              -4.3840400000     12.2195800000      0.9965000000
C              -5.1436000000     14.4401900000      2.0726500000
C              -5.5682700000     15.7392100000      1.8115200000
C              -5.6773300000     16.1969800000      0.4893700000
C              -5.3639600000     15.3864600000     -0.6006900000
C              -7.9498100000      6.5969300000      5.7428200000
C               2.0273300000      8.0943300000      6.0440800000
C              -4.3675100000     13.1012200000     -2.6439800000
C              -4.7042900000     14.2810800000     -3.3794800000
N              -4.9616700000     15.2017700000     -4.0503900000
O              -4.1866800000     11.5459800000      2.0004100000
C              -5.2803800000     -3.4303300000     -0.2204800000
C               4.0662100000      0.4628300000     -0.6655000000
C              -3.8334800000     12.0970800000     -3.5123000000
N              -3.3969100000     11.3382800000     -4.2859200000
C              -0.2360000000     -6.4049400000      8.8941300000
N              -0.6633400000     -5.6467400000      9.6735600000
F              -5.8813200000     16.5690900000      2.8218700000
F              -6.0971000000     17.4559200000      0.2728800000
H              -5.0574800000     14.0822700000      3.0898900000
H              -5.4741600000     15.8071400000     -1.5870700000
H              -3.9880900000     10.4050700000     -1.9602300000
H              -3.4912300000      8.1444700000     -2.1427800000
H              -2.0622100000      3.4967400000      5.1500800000
H              -1.8213900000      2.2639100000      0.2696600000
H              -0.6476000000     -2.4568200000      7.5580400000
H              -0.1154700000     -4.7066000000      7.3649100000
H               1.2904700000    -10.1455400000      6.9522500000
F               2.0147800000    -11.7575600000      5.0976900000
F               2.0903700000    -10.7744000000      2.5767700000
H               1.3956800000     -8.2460500000      2.3258100000
H              -4.8346500000      3.9862700000      3.4205000000
H              -0.2192900000      6.9437900000      7.1489400000
H              -2.1647000000      6.0023000000      6.0220800000
H               1.5713100000      7.8177500000      3.3389800000
H              -0.3625300000      6.8611600000      2.2076800000
H              -7.0320300000      4.3812100000      4.3964600000
H              -5.7731600000      8.2948900000      5.6561200000
H              -3.5690100000      7.8985000000      4.6937400000
H              -0.6093100000      0.1287200000     -0.6073500000
H               1.5337900000      0.3357700000     -1.7519100000
H               1.4207300000      0.1797700000      3.1883300000
H               3.5607500000      0.3669000000      2.0393200000
H              -3.9088600000      0.4108300000      2.0911400000
H              -5.6128800000     -1.0682000000      1.1672400000
H              -2.5441700000     -3.7245600000     -0.2520400000
H              -0.8365600000     -2.2444000000      0.6646900000
H              -8.1377000000      7.6578900000      5.9189600000
H              -8.7497400000      6.2133200000      5.1041300000
H              -8.0265900000      6.0823400000      6.7070500000
H               2.9391100000      8.0064900000      5.4489600000
H               1.8529500000      9.1613800000      6.2221000000
H               2.2098800000      7.6262500000      7.0141900000
H              -5.0134600000     -4.4826300000     -0.0950200000
H              -6.2546900000     -3.2719500000      0.2465000000
H              -5.3956300000     -3.2479100000     -1.2947400000
H               3.9628300000      0.9239800000     -1.6501600000
H               4.7824400000      1.0530200000     -0.0888500000
H               4.5031800000     -0.5314600000     -0.8111400000
                                                 
  eps=4.73931                                      
  epsinf=4.73931                                   
  RSolv=8.25                                       
 
