%mem=800MW
%nprocshared=64
%chk=IT-4F-HSO-w-0001-T2paraS1.chk
%rwf=IT-4F-HSO-w-0001-T2paraS1.rwf
#p wB97XD/6-31g** td(50-50,nstates=5) 6D 10F nosymm GFInput scf=(MaxCycle=20000) iop(3/107=0001000000,3/108=0001000000) SCRF=(PCM,Solvent=Generic,Read)

IT-4F

0  1
C               0.2796200000      0.1785100000     -0.0104800000
C               0.2201100000      0.1210700000      1.3917700000
C               1.4305400000      0.1939800000      2.0966600000
C               2.6514500000      0.3052000000      1.4267700000
C               2.7154400000      0.3558700000      0.0257100000
C               1.5015100000      0.2916400000     -0.6769900000
C              -1.1449400000      0.1056300000      2.1300900000
C              -1.0343900000     -0.3131200000      3.6032800000
C              -1.3497200000      0.7566900000      4.4449600000
C              -1.6707300000      1.9403300000      3.6828900000
C              -1.5908200000      1.5813600000      2.3081600000
S              -1.3078000000      0.3755400000      6.1489900000
C              -0.8558900000     -1.2791600000      5.7402900000
C              -0.7554200000     -1.4773500000      4.3384700000
C              -0.5878300000     -2.4107400000      6.4973000000
C              -0.2655000000     -3.5439300000      5.6950200000
S              -0.2999800000     -3.1246600000      3.9677000000
C              -2.0093400000      3.2424200000      4.0926500000
C              -2.2774400000      4.1819200000      3.1085900000
C              -2.2127300000      3.8189700000      1.7341300000
C              -1.8657700000      2.5190600000      1.3242500000
C              -2.6341400000      5.6817900000      3.2853800000
C              -2.7731200000      6.0924200000      1.8121600000
C              -2.5460600000      4.9990600000      0.9720500000
S              -2.7311100000      5.3423200000     -0.7306800000
C              -3.1226500000      7.0126500000     -0.3239700000
C              -3.1011300000      7.2431900000      1.0765000000
S              -3.4833400000      8.9097300000      1.4446000000
C              -3.6664600000      9.2890500000     -0.2826700000
C              -3.4358400000      8.1317900000     -1.0820600000
C              -0.0065100000     -4.7961500000      6.3049200000
C               0.3231700000     -6.0714200000      5.8367500000
C               0.6294500000     -6.4360300000      4.4193000000
C               1.0298000000     -7.8638200000      4.4236700000
C               0.9540200000     -8.3607600000      5.7381100000
C               0.4966000000     -7.2683000000      6.6441000000
C               1.4190400000     -8.6426300000      3.3384600000
C               1.7445100000     -9.9717700000      3.5867500000
C               1.6697900000    -10.4873500000      4.8897600000
C               1.2774600000     -9.7033000000      5.9739100000
O               0.5758200000     -5.7116000000      3.4348800000
C               0.2623200000     -7.4265100000      8.0197800000
C               0.5240500000     -8.6327300000      8.7412300000
N               0.7177000000     -9.5756800000      9.4027400000
C              -2.2243000000     -0.7833700000      1.4569900000
C              -1.8778800000     -1.9787900000      0.8074800000
C              -2.8573100000     -2.8260500000      0.2843200000
C              -4.2232500000     -2.5206100000      0.3941000000
C              -4.5664600000     -1.3300600000      1.0541100000
C              -3.5893600000     -0.4794200000      1.5769600000
C              -4.0075700000      5.9010900000      3.9767100000
C              -4.3188500000      7.1189600000      4.5997700000
C              -5.5817500000      7.3435400000      5.1556600000
C              -6.5867300000      6.3664500000      5.1061000000
C              -6.2767900000      5.1540100000      4.4673700000
C              -5.0167800000      4.9264100000      3.9115400000
C              -1.4445400000      6.3693400000      4.0057700000
C              -1.3623900000      6.3869600000      5.4079900000
C              -0.2523300000      6.9290200000      6.0590200000
C               0.8249500000      7.4724600000      5.3405600000
C               0.7462800000      7.4393000000      3.9398800000
C              -0.3622600000      6.8960600000      3.2853100000
C              -3.9715700000     10.5287300000     -0.8965300000
C              -4.2470700000     11.8179400000     -0.4317100000
C              -4.5087900000     12.9889100000     -1.2528600000
C              -4.9292000000     14.0926500000     -0.3434500000
C              -4.8536500000     13.6414700000      0.9874900000
C              -4.4100600000     12.2261000000      0.9977400000
C              -5.1621200000     14.4456100000      2.0800100000
C              -5.5687600000     15.7504800000      1.8223300000
C              -5.6563300000     16.2166600000      0.5016300000
C              -5.3397900000     15.4089000000     -0.5900500000
C              -7.9505800000      6.5948000000      5.7335400000
C               2.0108700000      8.1004000000      6.0511400000
C              -4.3562500000     13.1198200000     -2.6426500000
C              -4.6979100000     14.2981400000     -3.3764400000
N              -4.9605800000     15.2183800000     -4.0460900000
O              -4.2269700000     11.5410700000      1.9946000000
C              -5.2821400000     -3.4348500000     -0.1964400000
C               4.0464200000      0.4502500000     -0.6991700000
C              -3.8092000000     12.1227900000     -3.5096200000
N              -3.3611600000     11.3718400000     -4.2843900000
C              -0.2809500000     -6.4284200000      8.8877200000
N              -0.7282000000     -5.6786100000      9.6641300000
F              -5.8839700000     16.5783800000      2.8339200000
F              -6.0576900000     17.4816000000      0.2872100000
H              -5.0914200000     14.0805500000      3.0958900000
H              -5.4326900000     15.8377200000     -1.5747100000
H              -3.9993200000     10.4174900000     -1.9713000000
H              -3.4986500000      8.1543600000     -2.1602900000
H              -2.0596700000      3.4958800000      5.1417700000
H              -1.8158800000      2.2658000000      0.2750300000
H              -0.6248000000     -2.4600800000      7.5758400000
H              -0.0938100000     -4.7132300000      7.3787200000
H               1.2422800000    -10.1712100000      6.9442500000
F               1.9862800000    -11.7777500000      5.0937100000
F               2.1327600000    -10.7777400000      2.5828100000
H               1.4715800000     -8.2398400000      2.3358600000
H              -4.8300500000      3.9782200000      3.4237000000
H              -0.2311200000      6.9282900000      7.1443700000
H              -2.1698800000      5.9854500000      6.0072600000
H               1.5588900000      7.8423500000      3.3438600000
H              -0.3688900000      6.8845400000      2.2026700000
H              -7.0278200000      4.3731200000      4.4006600000
H              -5.7784800000      8.2984600000      5.6322200000
H              -3.5753200000      7.9022700000      4.6671100000
H              -0.6293600000      0.1277600000     -0.5968400000
H               1.5031700000      0.3305600000     -1.7618200000
H               1.4355900000      0.1712100000      3.1790600000
H               3.5654300000      0.3547800000      2.0101800000
H              -3.9053100000      0.4223900000      2.0863100000
H              -5.6113400000     -1.0592400000      1.1687000000
H              -2.5463700000     -3.7400000000     -0.2115900000
H              -0.8378100000     -2.2575400000      0.6995400000
H              -8.1385700000      7.6557700000      5.9098900000
H              -8.7509800000      6.2114800000      5.0951200000
H              -8.0272900000      6.0801300000      6.6977300000
H               2.9263600000      8.0104600000      5.4618800000
H               1.8365100000      9.1680700000      6.2256200000
H               2.1875300000      7.6345000000      7.0234000000
H              -5.0152100000     -4.4872300000     -0.0714900000
H              -6.2556200000     -3.2765900000      0.2725500000
H              -5.4000500000     -3.2525600000     -1.2704800000
H               3.9351000000      0.9100100000     -1.6836800000
H               4.7689700000      1.0403400000     -0.1302400000
H               4.4807200000     -0.5449100000     -0.8471400000
                                                 
  eps=4.73931                                      
  epsinf=4.73931                                   
  RSolv=8.25                                       
 
