%mem=1000MW
%nprocshared=40
#p wB97XD/6-31g** nosymm pop=esp opt td=(triplet,nstates=3,root=2) scf=(MaxCycle=20000) iop(3/107=0016000000,3/108=0016000000) SCRF=(PCM,Solvent=Generic,Read)

 Y6 opt-TDdft

0 1
C         -0.11399        0.55599       -0.00662
C         -0.01800        0.32471        1.37082
C          1.17128        0.65033        2.04553
C          2.28074        1.18376        1.39755
C          2.17628        1.40730        0.02976
C          0.98947        1.10212       -0.65560
C         -0.97436       -0.25886        2.35078
C         -0.37980       -0.11369        3.68039
C          1.01609        0.35589        3.49564
C         -1.07470       -0.22005        4.87815
C         -0.72559       -0.13085        6.24733
S          0.92628       -0.05472        6.91430
C          0.30605       -0.11865        8.52838
C         -1.10376       -0.15462        8.54585
C         -1.70412       -0.16409        7.28058
S         -1.77730       -0.16384       10.18570
C         -0.15388       -0.11854       10.82841
C          0.83696       -0.09323        9.83639
N          2.09048       -0.08469       10.43023
C          1.89187       -0.07207       11.80697
C          0.49393       -0.13245       12.08046
C          2.82711       -0.00227       12.88780
C          2.39380       -0.26658       14.21916
C          0.99482       -0.42849       14.50396
C          0.02889       -0.29287       13.43014
N          4.19490        0.26831       12.89625
C          4.63218        0.11658       14.20300
C          3.54750       -0.21717       15.02635
C          5.84331        0.22625       14.91877
C          5.66733       -0.03531       16.29228
S          3.99564       -0.42197       16.70614
C          6.85922       -0.03096       17.06863
C          7.99403        0.32976       16.24234
S          7.51682        0.52446       14.54259
N         -1.23432       -0.39780       13.83025
S         -1.19375       -0.65765       15.46515
N          0.44575       -0.63762       15.69610
C          9.34412        0.49808       16.56899
C          9.90493        0.72904       17.88293
C         11.12724        0.20195       18.42096
C         11.43189        0.97115       19.63387
C         10.43233        1.97465       19.79907
C          9.49804        1.81510       18.72117
C         10.42438        2.85935       20.88591
C         11.43708        2.73197       21.82126
C         12.42111        1.73303       21.67928
C         12.43133        0.84679       20.60634
F         13.37767        1.64364       22.61747
F         11.49711        3.56038       22.88214
C         11.88525       -0.87437       17.87877
C         13.19900       -1.19712       18.30944
N         14.28702       -1.48411       18.63181
O          8.49063        2.66234       18.55252
C          6.94594       -0.43387       18.42766
C          4.92922        1.08496       11.91954
C          3.29061       -0.54812        9.71861
C         -3.19688       -0.21354        7.06016
O          1.88391        0.50978        4.34614
C         -2.15145       -0.91187        2.01283
C         -2.68117       -0.96812        0.68398
N         -3.17331       -1.04439       -0.37066
F          3.20728        1.92487       -0.65535
F          0.92584        1.34756       -1.97341
C         11.38324       -1.73504       16.86449
N         11.00119       -2.46526       16.03365
C         -2.94516       -1.67297        2.93039
N         -3.62596       -2.33720        3.60532
H         13.21192        0.10250       20.56153
H          9.66420        3.61901       21.00699
H         10.05186        0.48189       15.74687
H          7.89837       -0.61866       18.90007
H          6.05156       -0.62247       19.00532
H          7.96464        2.42468       17.77781
H          5.39380        1.92586       12.43376
H          4.23349        1.49254       11.19292
H          5.69723        0.50365       11.41049
H          3.01114       -1.35080        9.03746
H          3.99994       -0.95587       10.43207
H          3.75405        0.25906        9.15257
H         -3.52688        0.55630        6.36038
H         -3.73202       -0.05477        7.99560
H         -3.50121       -1.18527        6.66657
H         -2.13882       -0.38190        4.75937
H          3.19389        1.42098        1.92675
H         -0.99665        0.34784       -0.59068

  eps=3.36
  epsinf=3.36
  RSolv=7.28
 
