%mem=800MW
%nprocshared=32
%chk=Y6-HSO-scan-150-S1fromT1.chk
%rwf=Y6-HSO-scan-150-S1fromT1.rwf
#p wB97XD/6-31g** td(50-50,nstates=5) 6D 10F nosymm GFInput scf=(MaxCycle=20000) iop(3/107=0016000000,3/108=0016000000) SCRF=(PCM,Solvent=Generic,Read)

 HSO

0 1
C               0.2855600000      1.0146100000      0.2365100000
C               0.3252600000      0.6758000000      1.5949800000
C               1.5177400000      0.8542600000      2.3204600000
C               2.6853000000      1.3385500000      1.7368600000
C               2.6371200000      1.6660000000      0.3880800000
C               1.4467400000      1.5117600000     -0.3449500000
C              -0.7002800000      0.0996000000      2.4992500000
C              -0.1472400000      0.1383700000      3.8634700000
C               1.3011200000      0.4762400000      3.7401400000
C              -0.8953000000      0.0774600000      5.0186200000
C              -0.5841200000      0.0988900000      6.4132200000
S               1.0331800000     -0.0802800000      7.1189000000
C               0.3592100000     -0.0936800000      8.7124900000
C              -1.0378100000      0.0731300000      8.6922600000
C              -1.5927900000      0.1848600000      7.4052900000
S              -1.7683300000      0.1155200000     10.3061600000
C              -0.1788400000     -0.0876300000     10.9997600000
C               0.8478200000     -0.1737000000     10.0359600000
N               2.0631600000     -0.3552300000     10.6595800000
C               1.8236600000     -0.3574700000     12.0342400000
C               0.4103800000     -0.2364800000     12.2596900000
C               2.7083700000     -0.4177700000     13.1379500000
C               2.1849400000     -0.6488000000     14.4626300000
C               0.7631200000     -0.6404500000     14.6905200000
C              -0.1281000000     -0.3616300000     13.5884600000
N               4.0957700000     -0.3112600000     13.2109700000
C               4.4540200000     -0.5377900000     14.5249000000
C               3.2846000000     -0.7542100000     15.3079800000
C               5.6274700000     -0.5691800000     15.2824400000
C               5.3559600000     -0.8167300000     16.6491300000
S               3.6300400000     -1.0141000000     16.9994700000
C               6.4896800000     -0.8662500000     17.4828800000
C               7.6558800000     -0.6325600000     16.7413100000
S               7.3422800000     -0.4076000000     15.0198500000
N              -1.4087900000     -0.3096900000     13.9336900000
S              -1.4716500000     -0.6054700000     15.5609100000
N               0.1453600000     -0.8031300000     15.8535900000
C               9.0480900000     -0.6816000000     17.2074900000
C               9.7784800000      0.3919100000     17.6622800000
C              11.1428600000      0.4595500000     18.1316100000
C              11.4201300000      1.8636400000     18.4954200000
C              10.2675500000      2.6527100000     18.2744000000
C               9.1928700000      1.7794600000     17.7506600000
C              10.2185500000      4.0178500000     18.5243600000
C              11.3695100000      4.6279000000     19.0163100000
C              12.5222600000      3.8663600000     19.2402700000
C              12.5719000000      2.4948600000     18.9895100000
F              13.6214300000      4.4845800000     19.7141700000
F              11.3851800000      5.9532400000     19.2791200000
C              12.0705600000     -0.6170700000     18.2379100000
C              13.3962600000     -0.4788800000     18.7289500000
N              14.4976200000     -0.4265600000     19.1251600000
O               8.0560800000      2.1187300000     17.4505600000
C               6.4656900000     -1.1088700000     18.9697100000
C               4.9761800000      0.4079800000     12.2745800000
C               3.2268500000     -0.9253900000      9.9623500000
C              -3.0682000000      0.3683000000      7.1403500000
O               2.1494800000      0.4781200000      4.6203000000
C              -1.8886100000     -0.4803400000      2.0967100000
C              -2.3650500000     -0.4661500000      0.7451100000
N              -2.8111900000     -0.4816500000     -0.3314400000
F               3.7229700000      2.1419500000     -0.2345700000
F               1.4414800000      1.8579100000     -1.6389100000
C              11.7772000000     -1.9578900000     17.8734400000
N              11.5909400000     -3.0794900000     17.5879300000
C              -2.7459100000     -1.2354400000      2.9629800000
N              -3.4721400000     -1.8881600000      3.5992700000
H              13.4977600000      1.9768900000     19.1848900000
H               9.3213100000      4.5960900000     18.3466500000
H               9.5007100000     -1.6635700000     17.1531400000
H               7.4766800000     -1.1911400000     19.3650000000
H               5.9292900000     -2.0315200000     19.2056300000
H               5.9653300000     -0.2845600000     19.4851600000
H               5.5776100000      1.1189200000     12.8379700000
H               4.3699500000      0.9751600000     11.5751800000
H               5.6323900000     -0.2760200000     11.7395700000
H               2.8771900000     -1.6465900000      9.2254700000
H               3.8456600000     -1.4633400000     10.6729300000
H               3.8087700000     -0.1507700000      9.4653900000
H              -3.2520400000      1.1382700000      6.3899500000
H              -3.5883200000      0.6722400000      8.0482000000
H              -3.5225700000     -0.5631700000      6.7959300000
H              -1.9649400000      0.0244400000      4.8602400000
H               3.5998100000      1.4622400000      2.3008300000
H              -0.5960000000      0.9282200000     -0.3790500000

  eps=3.36
  epsinf=3.36
  RSolv=7.28
 
