%mem=1000MW
%nprocshared=40
#p wB97XD/6-31g** nosymm pop=esp opt td=(nstates=2,root=1) scf=(MaxCycle=20000) iop(3/107=0001100000,3/108=0001100000) SCRF=(PCM,Solvent=Generic,Read)

 IT-4Cl opt-TDdft

0 1
C         -0.19389       -0.29040       -0.18113
C         -0.14923       -0.13775        1.21246
C          1.11427       -0.05341        1.82030
C          2.28345       -0.09828        1.05847
C          2.24226       -0.23520       -0.33926
C          0.97844       -0.33390       -0.94045
C         -1.44527       -0.19109        2.06177
C         -2.70864        0.17933        1.27381
C         -3.57758       -0.92681        1.18453
C         -3.01796       -2.07377        1.80313
C         -1.74851       -1.68274        2.35685
S         -5.07830       -0.59555        0.34939
C         -4.54436        1.06517        0.09908
C         -3.25799        1.30857        0.65850
C         -5.13424        2.15561       -0.53218
C         -4.31023        3.29876       -0.49369
S         -2.78277        2.95786        0.37305
C         -0.96209       -2.59769        3.01683
C         -1.44370       -3.92698        3.12896
C         -2.71350       -4.31790        2.57604
C         -3.50040       -3.40240        1.91698
C         -0.87369       -5.07946        3.72694
C         -1.70088       -6.20823        3.55756
C         -2.98367       -5.82710        2.80786
S          0.60439       -5.39849        4.60743
C          0.11858       -7.08629        4.75557
C         -1.13963       -7.34626        4.14604
S         -1.57849       -9.02878        4.30964
C         -0.07795       -9.37014        5.20035
C          0.70883       -8.19887        5.33943
C         -4.48361        4.62669       -0.96720
C         -5.45069        5.22945       -1.77263
C         -6.50122        4.56319       -2.60023
C         -7.02038        5.60767       -3.52677
C         -6.39613        6.83684       -3.25083
C         -5.48098        6.65489       -2.09217
C         -7.96514        5.45772       -4.52955
C         -8.29562        6.57535       -5.30836
C         -7.66793        7.81178       -5.05706
C         -6.72100        7.95068       -4.02917
Cl        -9.48513        6.38723       -6.57742
Cl        -8.04381        9.22817       -6.01486
O         -6.87901        3.39830       -2.58058
C         -4.85980        7.69399       -1.39333
C         -4.88445        9.06317       -1.80597
N         -4.85324       10.19665       -2.08545
C         -1.41542        0.68879        3.34066
C         -0.78506        1.94433        3.33695
C         -0.82792        2.77539        4.45761
C         -1.50727        2.39339        5.62664
C         -2.14748        1.14492        5.62154
C         -2.10731        0.31045        4.50106
C         -3.10992       -6.50212        1.41719
C         -4.34805       -6.57291        0.75825
C         -4.44949       -7.10309       -0.52947
C         -3.32054       -7.58005       -1.21555
C         -2.08303       -7.49327       -0.55956
C         -1.97740       -6.96146        0.72826
C         -4.18360       -6.09034        3.75815
C         -4.83074       -7.33741        3.77563
C         -5.85537       -7.60509        4.68442
C         -6.27541       -6.64400        5.61930
C         -5.61815       -5.40477        5.60769
C         -4.59019       -5.13375        4.70014
C          0.36307      -10.59794        5.76427
C         -0.13180      -11.89803        5.79770
C         -1.32610      -12.40939        5.07148
C         -1.31741      -13.88783        5.23371
C         -0.22537      -14.26042        6.03809
C          0.49466      -13.03196        6.47475
C         -0.00563      -15.61743        6.28928
C         -0.88422      -16.56524        5.74077
C         -1.98268      -16.17125        4.95036
C         -2.19971      -14.81064        4.69393
C         -3.44030       -8.19243       -2.59991
C         -7.40457       -6.94014        6.59007
O         -2.15746      -11.76649        4.44300
C          1.52449      -13.00886        7.41927
C          2.09427      -14.17930        8.01254
N          2.61311      -15.08539        8.53552
Cl        -0.56707      -18.25457        6.07124
Cl        -3.09284      -17.33835        4.26838
C         -1.52497        3.29179        6.85047
C          3.51641       -0.24675       -1.16501
C          2.11045      -11.82103        7.96133
N          2.62772      -10.90179        8.46300
C         -4.18593        7.53852       -0.13981
N         -3.64426        7.49821        0.89414
H         -8.43653        4.50117       -4.70855
H         -6.26556        8.91594       -3.88049
H         -3.68479        5.28898       -0.65946
H         -6.09911        2.16188       -1.00978
H         -0.00568       -2.32259        3.43729
H         -4.45450       -3.67818        1.49170
H          1.65873       -8.19641        5.85416
H          1.31347      -10.45922        6.26105
H          0.82037      -15.97212        6.88337
H         -3.03458      -14.48992        4.08595
H         -2.62568       -0.63880        4.54551
H          3.24058       -0.02239        1.56462
H          1.19791        0.05623        2.89421
H          0.89882       -0.44843       -2.01663
H         -1.14489       -0.38404       -0.69044
H         -2.68872        0.81211        6.50139
H         -0.32532        3.73621        4.41507
H         -0.24474        2.28010        2.46148
H         -5.24775       -6.22168        1.24747
H         -5.42557       -7.14642       -1.00197
H         -0.99824       -6.90539        1.18701
H         -1.18355       -7.84461       -1.05488
H         -4.10808       -4.16547        4.74162
H         -5.90549       -4.63509        6.31675
H         -6.33216       -8.57969        4.66135
H         -4.54790       -8.10791        3.07066
H         -1.71450        4.33318        6.57721
H         -2.29199        2.98478        7.56397
H         -0.55972        3.26150        7.36771
H          3.36281       -0.72486       -2.13462
H          3.86566        0.77483       -1.35214
H          4.32186       -0.77642       -0.64993
H         -7.25860       -7.90520        7.08338
H         -7.48203       -6.17399        7.36369
H         -8.36649       -6.98491        6.06814
H         -4.26417       -7.74934       -3.16401
H         -2.52256       -8.05853       -3.17689
H         -3.63060       -9.26926       -2.53004

  eps=4.88617
  epsinf=4.88617
  RSolv=8.36
 
