%mem=800MW
%nprocshared=64
#p wB97XD/6-31g** opt td=(triplet,nstates=3,root=2) pop=esp scf=(MaxCycle=20000) nosymm iop(3/107=0000100000,3/108=0000100000) SCRF=(PCM,Solvent=Generic,Read)

IEICO-4Cl

0  1
C         12.38591       -0.70991        9.92588
C         12.73663        0.13846        8.87317
C         14.03553        0.05626        8.34245
C         14.98194       -0.84184        8.81074
C         14.62853       -1.69604        9.86415
C         13.33535       -1.62058       10.41742
C         14.18449        1.06656        7.26078
C         12.88361        1.78248        7.16348
C         11.97391        1.18564        8.13093
C         12.59775        2.86240        6.32478
C         13.31478        3.58424        5.33864
C         12.70638        4.66268        4.65437
C         13.52654        5.27617        3.70973
C         14.82851        4.69710        3.62689
S         14.96623        3.35423        4.76486
C         15.92257        5.07374        2.80422
C         17.20423        4.48160        2.77962
C         18.06901        5.09629        1.87022
C         17.47956        6.15259        1.18095
S         15.83216        6.42036        1.63925
C         18.41146        6.75922        0.26010
C         19.62987        6.02909        0.36432
C         19.51239        4.87459        1.39427
C         20.73900        6.41040       -0.37604
C         20.61038        7.51756       -1.23439
C         19.38467        8.23305       -1.35607
C         18.28109        7.86291       -0.60232
C         19.51483        9.41830       -2.34785
C         20.99660        9.27733       -2.72664
C         21.56449        8.17269       -2.09833
S         23.22258        7.93012       -2.53357
C         23.16802        9.36060       -3.59648
C         21.88575        9.95012       -3.56853
C         18.68495        9.23663       -3.64804
C         18.54727       10.30988       -4.54717
C         17.88848       10.15201       -5.76602
C         17.33722        8.91485       -6.14521
C         17.47844        7.84717       -5.24861
C         18.14192        8.00174       -4.02556
C         16.60678        8.75683       -7.46738
C         19.18699       10.73081       -1.59018
C         17.87785       11.23505       -1.55179
C         17.56572       12.37813       -0.81046
C         18.54523       13.06180       -0.07361
C         19.85203       12.54805       -0.10580
C         20.16689       11.40531       -0.84466
C         24.28913        9.80627       -4.34511
S         24.17523       11.22223       -5.39248
C         25.86564       11.08545       -5.87316
C         26.46166        9.96454       -5.24920
C         25.60451        9.25566       -4.40937
C         19.57685        3.46228        0.75103
C         19.37391        3.25808       -0.62037
C         19.33856        1.96849       -1.16244
C         19.49850        0.83195       -0.35731
C         19.69522        1.03962        1.01912
C         19.73162        2.32399        1.56244
C         20.57526        5.09403        2.50122
C         20.31496        5.91549        3.60918
C         21.29824        6.16411        4.56988
C         22.58430        5.61088        4.46114
C         22.84579        4.80173        3.34443
C         21.86382        4.54967        2.38256
C         26.62408       11.93984       -6.71019
C         26.34060       13.08168       -7.46427
C         24.98990       13.63575       -7.75407
C         25.18073       14.70220       -8.77569
C         26.55195       14.83097       -9.05739
C         27.31181       13.87076       -8.20504
C         26.96048       15.77447      -10.00221
C         25.99203       16.56554      -10.64183
C         24.62277       16.42605      -10.34259
C         24.21342       15.48035       -9.39221
O         25.88304        8.16034       -3.68351
C         27.20922        7.59963       -3.73756
O         23.91576       13.29015       -7.27782
C         28.70887       13.82528       -8.11032
C         29.43738       13.04903       -7.15423
N         30.10412       12.46274       -6.39501
C         18.20297       14.29363        0.74674
C         19.47797       -0.56949       -0.94238
C         23.65530        5.89871        5.49931
O         13.22564        6.31065        2.90755
C         11.91330        6.90094        2.98178
C         10.61955        1.47347        8.34819
C          9.81680        0.85047        9.35482
N          9.09421        0.39588       10.15200
O         15.19800        1.25648        6.59943
C         29.59401       14.59466       -8.92847
N         30.38010       15.18025       -9.56359
C          9.83986        2.40235        7.58936
N          9.12877        3.13194        7.01744
H         15.97050       -0.88352        8.37423
H         11.41207       -0.69439       10.38618
H         11.69050        4.96087        4.86301
H         11.91016        7.69128        2.23602
H         11.73840        7.32665        3.97163
H         11.14518        6.16401        2.74036
H         17.47224        3.64871        3.41119
H         19.23399        4.10084       -1.28484
H         19.17993        1.85482       -2.23023
H         19.81914        0.18808        1.68100
H         19.88593        2.43465        2.62866
H         19.33949        6.36850        3.73547
H         21.05289        6.79709        5.41701
H         22.10970        3.90977        1.54407
H         23.82630        4.35271        3.22013
H         21.18834       11.04551       -0.83492
H         20.64124       13.04569        0.44924
H         17.08938       10.74612       -2.11050
H         16.54254       12.74102       -0.81462
H         18.95361       11.28252       -4.29811
H         17.80551       11.00565       -6.43157
H         18.23168        7.14204       -3.37446
H         17.06834        6.87383       -5.49916
H         17.34825        8.40486       -0.66910
H         21.67833        5.88175       -0.29455
H         21.63862       10.83240       -4.13829
H         18.03656       14.02898        1.79707
H         17.29471       14.77811        0.38204
H         19.01108       15.02889        0.72065
H         15.63716        9.26594       -7.44136
H         16.42318        7.70645       -7.70172
H         17.17918        9.19165       -8.29166
H         27.49751        9.71168       -5.41627
H         27.99438       15.92080      -10.26764
H         23.16640       15.36018       -9.14963
H         27.18801        6.74234       -3.07002
H         27.94795        8.32225       -3.38585
H         27.44644        7.27259       -4.75174
H         19.03012       -0.58258       -1.93810
H         18.90909       -1.25505       -0.30857
H         20.49286       -0.97309       -1.03012
H         23.22621        5.99011        6.50015
H         24.16838        6.84135        5.27733
H         24.41157        5.11135        5.52560
H         11.60559        3.27512        6.43626
H         27.64963       11.60148       -6.76566
Cl        26.54850       17.73059      -11.82507
Cl        23.40287       17.40467      -11.12900
Cl        15.82080       -2.83091       10.45985
Cl        12.85494       -2.65794       11.74407
                                                  
  eps=4.97393                                      
  epsinf=4.97393                                   
  RSolv=8.87                                       
   
