%mem=800MW
%nprocshared=32
%chk=IT-4Cl-HSO-scan-15-T2fromS1.chk
%rwf=IT-4Cl-HSO-scan-15-T2fromS1.rwf
#p wB97XD/6-31g** td(50-50,nstates=5) 6D 10F nosymm GFInput scf=(MaxCycle=20000) iop(3/107=0001100000,3/108=0001100000) SCRF=(PCM,Solvent=Generic,Read)

 HSO

0 1
C              -0.0417500000     -0.3062600000     -0.2205200000
C              -0.0193900000     -0.1616400000      1.1743800000
C               1.2349000000     -0.1034800000      1.8044400000
C               2.4161300000     -0.1660600000      1.0628900000
C               2.3973400000     -0.2960600000     -0.3360700000
C               1.1427300000     -0.3680000000     -0.9595100000
C              -1.3316000000     -0.1962600000      2.0017400000
C              -2.5721400000      0.1834300000      1.1835200000
C              -3.4374100000     -0.9216800000      1.0533800000
C              -2.9057100000     -2.0703200000      1.6935900000
C              -1.6556200000     -1.6841900000      2.2928800000
S              -4.9024700000     -0.5837400000      0.1590700000
C              -4.3601400000      1.0794700000     -0.0550900000
C              -3.1005800000      1.3194200000      0.5637800000
C              -4.9219900000      2.1771100000     -0.6998700000
C              -4.1070100000      3.3229100000     -0.5996400000
S              -2.6228100000      2.9773200000      0.3329600000
C              -0.8998500000     -2.6000400000      2.9864700000
C              -1.3946900000     -3.9246700000      3.0910000000
C              -2.6470000000     -4.3101700000      2.4963600000
C              -3.4008200000     -3.3950600000      1.7989300000
C              -0.8553900000     -5.0761500000      3.7188300000
C              -1.6873400000     -6.1985600000      3.5339700000
C              -2.9409400000     -5.8132700000      2.7383300000
S               0.5897100000     -5.3990800000      4.6510300000
C               0.0825300000     -7.0802200000      4.8015200000
C              -1.1577100000     -7.3350900000      4.1543100000
S              -1.6197400000     -9.0106200000      4.3243800000
C              -0.1505600000     -9.3570900000      5.2647200000
C               0.6428900000     -8.1918900000      5.4157300000
C              -4.3019700000      4.6621500000     -1.0287200000
C              -5.1839700000      5.2192700000     -1.9550300000
C              -5.9059200000      4.5052300000     -3.0526800000
C              -6.3599900000      5.5655000000     -3.9989100000
C              -6.0216600000      6.8313300000     -3.4868700000
C              -5.3584600000      6.6501100000     -2.1686600000
C              -7.0100700000      5.4022800000     -5.2120500000
C              -7.3316100000      6.5453500000     -5.9580600000
C              -6.9972900000      7.8209000000     -5.4608500000
C              -6.3473200000      7.9711900000     -4.2251400000
Cl             -8.1391500000      6.3396200000     -7.4964200000
Cl             -7.3771800000      9.2724300000     -6.3623600000
O              -6.0761700000      3.3031500000     -3.2075800000
C              -5.0565200000      7.6745200000     -1.2669500000
C              -5.1834100000      9.0672300000     -1.5653500000
N              -5.2519000000     10.2191600000     -1.7450700000
C              -1.3133700000      0.6868000000      3.2777600000
C              -0.6566900000      1.9287400000      3.2867100000
C              -0.7086600000      2.7633200000      4.4042900000
C              -1.4238700000      2.3988800000      5.5574600000
C              -2.0904300000      1.1645700000      5.5392800000
C              -2.0411600000      0.3265200000      4.4217600000
C              -3.0318100000     -6.5070200000      1.3544800000
C              -4.2491600000     -6.5725700000      0.6574200000
C              -4.3170000000     -7.1233300000     -0.6239100000
C              -3.1734900000     -7.6272700000     -1.2650700000
C              -1.9561500000     -7.5444400000     -0.5717600000
C              -1.8841500000     -6.9917100000      0.7095100000
C              -4.1720900000     -6.0507300000      3.6551700000
C              -4.8317400000     -7.2912100000      3.6710500000
C              -5.8836100000     -7.5370100000      4.5545800000
C              -6.3194000000     -6.5599500000      5.4653000000
C              -5.6510700000     -5.3266300000      5.4544300000
C              -4.5963600000     -5.0771900000      4.5717500000
C               0.2634700000    -10.5830100000      5.8526400000
C              -0.2430600000    -11.8785300000      5.8857600000
C              -1.4271900000    -12.3842100000      5.1395400000
C              -1.4395800000    -13.8606700000      5.3179700000
C              -0.3685900000    -14.2371000000      6.1484000000
C               0.3580700000    -13.0124700000      6.5855900000
C              -0.1704300000    -15.5937000000      6.4189200000
C              -1.0487300000    -16.5372600000      5.8627100000
C              -2.1255400000    -16.1391900000      5.0450000000
C              -2.3214700000    -14.7790400000      4.7700400000
C              -3.2568200000     -8.2633900000     -2.6412900000
C              -7.4755400000     -6.8338900000      6.4105200000
O              -2.2374700000    -11.7386800000      4.4866900000
C               1.3727200000    -12.9928400000      7.5464500000
C               1.9172100000    -14.1643400000      8.1611800000
N               2.4158300000    -15.0712200000      8.7020800000
Cl             -0.7588500000    -18.2263800000      6.2182100000
Cl             -3.2343100000    -17.3008600000      4.3514700000
C              -1.4525900000      3.3023000000      6.7773700000
C               3.6856500000     -0.3301200000     -1.1388800000
C               1.9677700000    -11.8077600000      8.0846100000
N               2.4911400000    -10.8908400000      8.5841900000
C              -4.6518100000      7.4582900000      0.0892500000
N              -4.3452200000      7.3639400000      1.2122400000
H              -7.2615300000      4.4165400000     -5.5788800000
H              -6.1102300000      8.9676500000     -3.8894700000
H              -3.6171700000      5.3664800000     -0.5722400000
H              -5.8686100000      2.1825400000     -1.2120200000
H               0.0419700000     -2.3280000000      3.4403700000
H              -4.3408300000     -3.6676000000      1.3414800000
H               1.5767400000     -8.1928500000      5.9591400000
H               1.2016800000    -10.4474000000      6.3726700000
H               0.6383400000    -15.9512100000      7.0346700000
H              -3.1397300000    -14.4553100000      4.1414200000
H              -2.5807500000     -0.6113600000      4.4550900000
H               3.3654900000     -0.1108100000      1.5861200000
H               1.3025500000     -0.0008900000      2.8801900000
H               1.0796400000     -0.4763100000     -2.0374700000
H              -0.9847400000     -0.3789900000     -0.7474600000
H              -2.6602600000      0.8458400000      6.4062300000
H              -0.1850000000      3.7133000000      4.3722100000
H              -0.0896300000      2.2517100000      2.4234100000
H              -5.1587300000     -6.2015100000      1.1125800000
H              -5.2784200000     -7.1618200000     -1.1260800000
H              -0.9191000000     -6.9392600000      1.1976600000
H              -1.0464200000     -7.9158100000     -1.0325100000
H              -4.1067200000     -4.1127600000      4.6135000000
H              -5.9501000000     -4.5449400000      6.1453400000
H              -6.3684800000     -8.5076400000      4.5316500000
H              -4.5364200000     -8.0747200000      2.9857800000
H              -1.6479500000      4.3411700000      6.4980100000
H              -2.2209200000      2.9940200000      7.4888200000
H              -0.4894100000      3.2813700000      7.2987000000
H               3.5372800000     -0.7913000000     -2.1174500000
H               4.0661500000      0.6838200000     -1.3054600000
H               4.4667500000     -0.8884700000     -0.6165800000
H              -7.3592200000     -7.8015900000      6.9063000000
H              -7.5549100000     -6.0664000000      7.1826800000
H              -8.4265800000     -6.8591400000      5.8676400000
H              -4.0631300000     -7.8286000000     -3.2362400000
H              -2.3229000000     -8.1419200000     -3.1946900000
H              -3.4517600000     -9.3384300000     -2.5578500000

  eps=4.88617
  epsinf=4.88617
  RSolv=8.36
 
