%mem=800MW
%nprocshared=40
%chk=Y6-HSO-scan-90-S1fromT1.chk
%rwf=Y6-HSO-scan-90-S1fromT1.rwf
#p wB97XD/6-31g** td(50-50,nstates=5) 6D 10F nosymm GFInput scf=(MaxCycle=20000) iop(3/107=0016000000,3/108=0016000000) SCRF=(PCM,Solvent=Generic,Read)

 Y6

0 1
C              -0.0292700000      0.3832000000      0.0519700000
C               0.0731900000      0.1717000000      1.4325700000
C               1.2845800000      0.4521800000      2.0917100000
C               2.4120600000      0.9178900000      1.4205000000
C               2.3016500000      1.1199200000      0.0508200000
C               1.0915000000      0.8615300000     -0.6177300000
C              -0.8990500000     -0.3480800000      2.4248400000
C              -0.3009700000     -0.1595200000      3.7568900000
C               1.1323700000      0.2000800000      3.5478000000
C              -1.0107600000     -0.1149500000      4.9356500000
C              -0.6558100000      0.0465900000      6.3105000000
S               0.9815500000     -0.0812700000      6.9788300000
C               0.3575500000      0.0525800000      8.5875300000
C              -1.0378100000      0.2343700000      8.5938000000
C              -1.6322900000      0.2329700000      7.3196500000
S              -1.7186500000      0.4322400000     10.2176800000
C              -0.1110600000      0.2713500000     10.8798900000
C               0.8850900000      0.0843400000      9.8982000000
N               2.1164900000     -0.0606800000     10.5002700000
C               1.9177400000      0.0655500000     11.8758600000
C               0.5140100000      0.2286200000     12.1307000000
C               2.8350100000      0.0883600000     12.9534200000
C               2.3509400000     -0.0156900000     14.3085700000
C               0.9374100000      0.0408600000     14.5770400000
C               0.0159200000      0.2335300000     13.4811100000
N               4.2257200000      0.1662000000     12.9727900000
C               4.6230900000      0.0397200000     14.2889800000
C               3.4759600000     -0.0779400000     15.1246500000
C               5.8210500000      0.0290300000     15.0074700000
C               5.5905700000     -0.1076700000     16.3970300000
S               3.8731700000     -0.2159700000     16.8191000000
C               6.7522500000     -0.1468000000     17.1923400000
C               7.8985400000     -0.0194800000     16.3955500000
S               7.5295900000      0.0989300000     14.6746900000
N              -1.2525100000      0.3375200000     13.8583600000
S              -1.2685000000      0.1919200000     15.5066100000
N               0.3537300000     -0.0053600000     15.7679200000
C               9.3031900000     -0.1125200000     16.8150000000
C              10.1177800000      0.9445200000     17.1492600000
C              11.5038700000      0.9582300000     17.5555100000
C              11.8788400000      2.3626100000     17.8145400000
C              10.7706700000      3.2075000000     17.5735900000
C               9.6241500000      2.3709000000     17.1505800000
C              10.8161600000      4.5866700000     17.7303600000
C              12.0189800000      5.1530200000     18.1449200000
C              13.1279900000      4.3350200000     18.3897000000
C              13.0825100000      2.9495800000     18.2332700000
F              14.2788700000      4.9099600000     18.7899000000
F              12.1257000000      6.4893900000     18.3145100000
C              12.3733600000     -0.1633400000     17.6878300000
C              13.7325000000     -0.0719500000     18.0903300000
N              14.8576500000     -0.0579100000     18.4166900000
O               8.5009500000      2.7615700000     16.8625600000
C               6.7761100000     -0.2925600000     18.6917900000
C               5.0881700000      0.7901600000     11.9549700000
C               3.2458900000     -0.7248400000      9.8288300000
C              -3.1144300000      0.4026300000      7.0852000000
O               2.0106700000      0.3044300000      4.3913900000
C              -2.0776400000     -1.0061000000      2.1285200000
C              -2.5986300000     -1.1498100000      0.8012700000
N              -3.0768500000     -1.2933700000     -0.2517900000
F               3.3451200000      1.5738400000     -0.6551500000
F               1.0271000000      1.0875700000     -1.9363400000
C              11.9880100000     -1.5049700000     17.4269800000
N              11.7268700000     -2.6299000000     17.2256600000
C              -2.8756900000     -1.6943400000      3.1011900000
N              -3.5534900000     -2.2991200000      3.8314100000
H              13.9787400000      2.3866400000     18.4418200000
H               9.9519300000      5.2094100000     17.5396700000
H               9.6915100000     -1.1231000000     16.8324800000
H               7.7999300000     -0.3504800000     19.0569800000
H               6.2493700000     -1.1985400000     19.0030400000
H               6.2913200000      0.5623300000     19.1707600000
H               5.6647000000      1.5863400000     12.4233300000
H               4.4682600000      1.2419300000     11.1876800000
H               5.7649000000      0.0620500000     11.5113700000
H               2.8597400000     -1.5129400000      9.1843000000
H               3.8824500000     -1.1941600000     10.5718200000
H               3.8228000000     -0.0197500000      9.2326000000
H              -3.3205800000      1.0756000000      6.2521800000
H              -3.5968900000      0.8247500000      7.9662800000
H              -3.5889500000     -0.5591400000      6.8779200000
H              -2.0839100000     -0.1945400000      4.8171900000
H               3.3419800000      1.1208400000      1.9341500000
H              -0.9306700000      0.2124300000     -0.5155000000
                                                   
  eps=3.36                                       
  epsinf=3.36                                    
  RSolv=7.28
 
