%mem=1000MW
%nprocshared=40
#p wB97XD/6-31g** nosymm pop=esp opt td=(triplet,nstates=2,root=1) scf=(MaxCycle=20000) iop(3/107=0001100000,3/108=0001100000) SCRF=(PCM,Solvent=Generic,Read)

 IT-4Cl opt-TDdft

0 1
C         -0.03087       -0.39570       -0.41131
C          0.03293       -0.22157        0.97882
C          1.30504       -0.16546        1.57180
C          2.46424       -0.25716        0.79903
C          2.40409       -0.41470       -0.59578
C          1.13162       -0.48613       -1.18204
C         -1.25420       -0.21862        1.84340
C         -2.51384        0.17736        1.05940
C         -3.42316       -0.91033        1.00686
C         -2.89833       -2.05208        1.64875
C         -1.60448       -1.69312        2.17692
S         -4.92212       -0.54684        0.16923
C         -4.32873        1.08912       -0.12402
C         -3.02771        1.30380        0.42547
C         -4.86228        2.18798       -0.76836
C         -3.98844        3.31522       -0.75114
S         -2.47441        2.93232        0.09815
C         -0.84156       -2.61686        2.84649
C         -1.36738       -3.93004        3.00380
C         -2.66505       -4.28696        2.48387
C         -3.42616       -3.36410        1.81057
C         -0.82796       -5.08026        3.61756
C         -1.70287       -6.19021        3.49843
C         -2.99151       -5.77724        2.77213
S          0.66219       -5.43456        4.47394
C          0.11721       -7.10082        4.67492
C         -1.17033       -7.32656        4.09927
S         -1.66343       -8.99313        4.31099
C         -0.15462       -9.36867        5.17358
C          0.67910       -8.21529        5.26641
C         -4.39185        4.53891       -1.33292
C         -3.79272        5.78790       -1.51218
C         -2.36961        6.13372       -1.24750
C         -2.14998        7.48626       -1.82924
C         -3.35778        7.96403       -2.36545
C         -4.42773        6.95378       -2.11366
C         -0.96945        8.21149       -1.88223
C         -0.98349        9.46426       -2.50908
C         -2.18262        9.95352       -3.06490
C         -3.37263        9.21129       -2.99289
Cl         0.50492       10.38053       -2.58060
Cl        -2.24024       11.50578       -3.87084
O         -1.52082        5.45453       -0.68441
C         -5.78759        7.16339       -2.34992
C         -6.32251        8.33036       -2.98268
N         -6.83347        9.24519       -3.49705
C         -1.17826        0.68831        3.10193
C         -0.52028        1.92894        3.05591
C         -0.52320        2.78783        4.15622
C         -1.18742        2.44940        5.34697
C         -1.85323        1.21519        5.38532
C         -1.85293        0.35292        4.28503
C         -3.19236       -6.49303        1.41223
C         -4.45006       -6.51669        0.78811
C         -4.61616       -7.08255       -0.47792
C         -3.53544       -7.64600       -1.17536
C         -2.27755       -7.60834       -0.55403
C         -2.10732       -7.04024        0.71102
C         -4.16967       -5.95497        3.76970
C         -4.87262       -7.16888        3.85098
C         -5.86927       -7.36195        4.80930
C         -6.20364       -6.35605        5.73111
C         -5.49379       -5.14863        5.65273
C         -4.49436       -4.95224        4.69542
C          0.25769      -10.59233        5.75032
C         -0.27691      -11.88073        5.81640
C         -1.49282      -12.37224        5.11357
C         -1.51780      -13.84913        5.29550
C         -0.42531      -14.23779        6.08921
C          0.32730      -13.01642        6.50312
C         -0.22906      -15.59521        6.35056
C         -1.13370      -16.53032        5.82234
C         -2.23408      -16.12024        5.04316
C         -2.42647      -14.75852        4.77629
C         -3.72460       -8.29514       -2.53510
C         -7.30176       -6.56992        6.75808
O         -2.31681      -11.71810        4.48757
C          1.36068      -13.00450        7.44151
C          1.90504      -14.18022        8.04983
N          2.40421      -15.09018        8.58400
Cl        -0.84585      -18.22259        6.16304
Cl        -3.37598      -17.27077        4.38558
C         -1.16267        3.37732        6.54877
C          3.66922       -0.47514       -1.43343
C          1.97583      -11.82220        7.96563
N          2.51486      -10.90950        8.45481
C         -6.83330        6.27311       -1.94378
N         -7.74401        5.61348       -1.63010
H         -0.05823        7.81872       -1.45263
H         -4.26133        9.63012       -3.43554
H         -5.38925        4.45049       -1.74165
H         -5.83494        2.22156       -1.23739
H          0.13075       -2.36572        3.24523
H         -4.39643       -3.61590        1.40715
H          1.64084       -8.23822        5.75806
H          1.22219      -10.47644        6.22511
H          0.59832      -15.96153        6.93566
H         -3.26229      -14.42640        4.17577
H         -2.38845       -0.58433        4.36357
H          3.42853       -0.20152        1.29423
H          1.40336       -0.04091        2.64287
H          1.03701       -0.61493       -2.25544
H         -0.98949       -0.46861       -0.90962
H         -2.38325        0.91532        6.28374
H         -0.00125        3.73627        4.07979
H          0.01008        2.23215        2.16276
H         -5.31527       -6.09954        1.28795
H         -5.60547       -7.08460       -0.92428
H         -1.11424       -7.02503        1.14203
H         -1.41291       -8.02717       -1.05894
H         -3.97040       -4.00525        4.68443
H         -5.71653       -4.34594        6.34842
H         -6.38941       -8.31410        4.83706
H         -4.65551       -7.97205        3.15916
H         -1.33098        4.41633        6.25317
H         -1.92543        3.10691        7.28143
H         -0.19036        3.33533        7.05181
H          3.48936       -0.94809       -2.40104
H          4.05633        0.53194       -1.62460
H          4.45834       -1.03504       -0.92480
H         -7.19996       -7.54139        7.24954
H         -7.28692       -5.79802        7.52971
H         -8.28874       -6.54692        6.28352
H         -4.57919       -7.87048       -3.06636
H         -2.83925       -8.17274       -3.16343
H         -3.90446       -9.37072       -2.42794

  eps=4.88617
  epsinf=4.88617
  RSolv=8.36
 
