%mem=800MW
%nprocshared=32
%chk=Y6-HSO-scan-70-S1fromT2.chk
%rwf=Y6-HSO-scan-70-S1fromT2.rwf
#p wB97XD/6-31g** td(50-50,nstates=5) 6D 10F nosymm GFInput scf=(MaxCycle=20000) iop(3/107=0016000000,3/108=0016000000) SCRF=(PCM,Solvent=Generic,Read)

 HSO

0 1
C               0.1408100000      0.5547000000      0.0536300000
C               0.1812600000      0.3929300000      1.4431000000
C               1.3030400000      0.8557300000      2.1560700000
C               2.3916100000      1.4625500000      1.5394300000
C               2.3395400000      1.6215100000      0.1588200000
C               1.2241700000      1.1752200000     -0.5655600000
C              -0.7684700000     -0.2324500000      2.4005100000
C              -0.2538500000     -0.0186100000      3.7390800000
C               1.1070600000      0.5857100000      3.6022800000
C              -0.9817800000     -0.1792700000      4.9232200000
C              -0.6652000000     -0.0938300000      6.2980600000
S               0.9631100000      0.0399600000      7.0002700000
C               0.3094200000     -0.0989000000      8.6076200000
C              -1.0999100000     -0.1917400000      8.5897800000
C              -1.6730400000     -0.1886200000      7.3161100000
S              -1.8123700000     -0.2644300000     10.2134900000
C              -0.2073000000     -0.1617800000     10.8957400000
C               0.8075900000     -0.0737200000      9.9239500000
N               2.0440300000     -0.0231100000     10.5464700000
C               1.8129700000     -0.0450700000     11.9191900000
C               0.4123200000     -0.1752800000     12.1593200000
C               2.7175200000      0.0540000000     13.0249200000
C               2.2617900000     -0.2557200000     14.3414600000
C               0.8660100000     -0.4919500000     14.5881300000
C              -0.0777900000     -0.3817100000     13.4943100000
N               4.0641800000      0.4038100000     13.0749800000
C               4.4743800000      0.2604700000     14.3903700000
C               3.3849100000     -0.1499100000     15.1824800000
C               5.6579800000      0.4308000000     15.1334400000
C               5.4555000000      0.1445800000     16.5018000000
S               3.7896800000     -0.3433900000     16.8711100000
C               6.5901000000      0.2808600000     17.3048600000
C               7.7271400000      0.6831100000     16.5262800000
S               7.3000100000      0.9138700000     14.8158200000
N              -1.3439300000     -0.5534800000     13.8590600000
S              -1.3315300000     -0.8411300000     15.4893000000
N               0.2987200000     -0.7492700000     15.7619000000
C               9.0212200000      0.7833500000     17.0866600000
C              10.2556700000      1.2482600000     16.6194700000
C              11.5079700000      1.1822000000     17.3473100000
C              12.4657300000      2.1089000000     16.6893600000
C              11.8701600000      2.6207000000     15.5215700000
C              10.4964300000      2.0722600000     15.3943300000
C              12.5252300000      3.4954600000     14.6617600000
C              13.8195200000      3.8768300000     14.9990200000
C              14.4250900000      3.3810600000     16.1632300000
C              13.7702700000      2.4949900000     17.0166000000
F              15.6730200000      3.7768600000     16.4582800000
F              14.5048000000      4.7264500000     14.2162300000
C              11.8179400000      0.3356400000     18.4218600000
C              13.0389700000      0.3993500000     19.1587900000
N              14.0092400000      0.4106100000     19.8084500000
O               9.7248300000      2.2814600000     14.4688100000
C               6.6204200000      0.0401800000     18.7929300000
C               4.7911200000      1.2529300000     12.1195600000
C               3.2804900000     -0.4175500000      9.8541700000
C              -3.1534500000     -0.2732000000      7.0432400000
O               1.9082200000      0.8355000000      4.4921800000
C              -1.9032100000     -0.9731800000      2.0378700000
C              -2.4117200000     -1.0465900000      0.7059500000
N              -2.8858700000     -1.1348200000     -0.3575500000
F               3.3542000000      2.2068000000     -0.4985500000
F               1.2071600000      1.3534900000     -1.8955700000
C              10.9899700000     -0.7447800000     18.8554300000
N              10.3855300000     -1.6653900000     19.2434100000
C              -2.6409400000     -1.8050300000      2.9346400000
N              -3.2707300000     -2.5310200000      3.5978000000
H              14.2953800000      2.1546700000     17.8951300000
H              12.0559300000      3.8736000000     13.7634900000
H               9.0357000000      0.4362800000     18.1117000000
H               7.0892000000      0.8733800000     19.3212000000
H               7.1741000000     -0.8699500000     19.0349000000
H               5.6123700000     -0.0724200000     19.1911000000
H               5.2110900000      2.1060300000     12.6505900000
H               4.0979400000      1.6399400000     11.3795600000
H               5.5931300000      0.7029000000     11.6289800000
H               3.0507700000     -1.2134600000      9.1472300000
H               3.9878800000     -0.8139500000     10.5757600000
H               3.7223100000      0.4226600000      9.3204400000
H              -3.4155300000     -1.2242500000      6.5745200000
H              -3.4835300000      0.5318000000      6.3825800000
H              -3.7244000000     -0.1935200000      7.9676400000
H              -2.0310300000     -0.3974100000      4.7731600000
H               3.2508700000      1.8036900000      2.1011300000
H              -0.6827400000      0.2351800000     -0.5655800000

  eps=3.36
  epsinf=3.36
  RSolv=7.28
 
