%mem=800MW
%nprocshared=64
#p wB97XD/6-31g** opt td=(triplet,nstates=3,root=2) pop=esp scf=(MaxCycle=20000) nosymm iop(3/107=0002200000,3/108=0002200000) SCRF=(PCM,Solvent=Generic,Read)

ITIC

0  1
C         -0.14479       -0.15234       -0.03189
C         -0.05764        0.00037        1.35705
C          1.17550       -0.24569        1.99455
C          2.31872       -0.61560        1.29347
C          2.22444       -0.76126       -0.09642
C          1.00225       -0.53581       -0.74245
C          1.01057       -0.06205        3.45838
C         -0.43324        0.25853        3.68988
C         -1.05857        0.40159        2.38608
C         -1.09313        0.29590        4.92219
C         -0.68571        0.21350        6.27486
S          0.96030        0.11720        6.94041
C          0.33881        0.12242        8.57662
C         -1.07936        0.18132        8.58183
C         -1.65464        0.23550        7.32033
C          0.88507        0.06101        9.86965
C         -0.11372        0.07513       10.84590
S         -1.74078        0.16685       10.21634
C          2.27602        0.02202       10.51964
C          1.86872        0.04064       12.01673
C          0.45492        0.03286       12.17268
C          2.69494        0.03583       13.13085
C          2.08764        0.01363       14.39882
C          0.67440       -0.02540       14.55411
C         -0.15195       -0.01252       13.44017
C          0.26800       -0.10567       16.04959
C          1.65812       -0.06193       16.70106
C          2.65557        0.01794       15.72657
S          4.28018        0.12395       16.35968
C          3.62004        0.05104       17.99294
C          2.20383       -0.04282       17.99569
S          1.58479       -0.13519       19.63026
C          3.22901       -0.02896       20.29905
C          4.19549        0.06323       19.25535
C         -0.53434        1.13294       16.52978
C         -1.34666        1.07281       17.67262
C         -2.00215        2.20933       18.15320
C         -1.86956        3.45377       17.51847
C         -1.04375        3.51382       16.38449
C         -0.38759        2.37983       15.90136
C         -2.61006        4.67975       18.02223
C         -0.46205       -1.45844       16.26100
C         -1.84179       -1.57929       16.02309
C         -2.48487       -2.81425       16.12070
C         -1.78018       -3.98260       16.45580
C         -0.40158       -3.85980       16.68217
C          0.24554       -2.62489       16.58372
C          3.63792        0.00278       21.65342
C          2.98297       -0.09872       22.88470
C          3.60842        0.00528       24.19217
C          2.61332       -0.44365       25.20725
C          1.38386       -0.68756       24.56200
C          1.54548       -0.45364       23.10516
C          0.24637       -1.09671       25.25053
C          0.34253       -1.28357       26.63535
C          1.56101       -1.05944       27.28876
C          2.70230       -0.63753       26.59097
C          3.05809        1.28784       10.08043
C          3.87277        1.27460        8.93769
C          4.51084        2.43476        8.49193
C          4.35758        3.65751        9.16314
C          3.52969        3.67086       10.29722
C          2.89067        2.51289       10.74566
C          3.02993       -1.31058       10.26359
C          2.34397       -2.47670        9.89659
C          3.01281       -3.69600        9.75679
C          4.39248       -3.80307        9.98440
C          5.07567       -2.63531       10.36339
C          4.41091       -1.41598       10.50238
C          4.88562        0.50523       24.48930
C          5.77238        1.10452       23.54030
N          6.54692        1.62220       22.83547
O          0.66832       -0.54961       22.25674
C         -2.49051       -5.31766       16.59170
C          5.07934        4.90971        8.69823
C          5.12633       -5.12015        9.80514
C         -2.34029        0.89978        2.10682
C         -3.23051        1.45835        3.07729
N         -4.00751        1.94506        3.80115
O          1.89012       -0.16844        4.30305
C          5.44908        0.53572       25.80315
N          5.98339        0.59019       26.84031
C         -2.90374        0.97359        0.79476
N         -3.43769        1.06153       -0.24027
H         -0.52355       -1.60594       27.20161
H          1.63115       -1.21495       28.35933
H         -0.68430       -1.26770       24.72378
H          3.62021       -0.48319       27.13607
H          4.71157        0.11358       21.72053
H          5.25435        0.14187       19.45440
H         -1.22790       -0.03153       13.53823
H          3.77090        0.05321       13.03277
H         -2.71510        0.29616        7.12318
H         -2.16883        0.38720        4.85638
H         -1.06542        0.00439       -0.57181
H          0.93358       -0.66083       -1.81710
H          3.09492       -1.05309       -0.67246
H          3.25201       -0.78898        1.81472
H          0.24542        2.48045       15.02879
H         -3.55294       -2.86476       15.93326
H         -2.42916       -0.70652       15.76603
H          0.18344       -4.73705       16.93974
H          1.31346       -2.58515       16.75667
H         -0.90529        4.45854       15.86813
H         -2.62234        2.11831       19.03922
H         -1.48221        0.13538       18.19594
H          4.98217       -0.54276       10.79216
H          6.14389       -2.67381       10.55292
H          1.27620       -2.44968        9.72035
H          2.44393       -4.57347        9.46608
H          2.25498        2.57704       11.61991
H          3.37600        4.59785       10.84072
H          5.13376        2.37982        7.60482
H          4.02379        0.35526        8.38720
H         -2.78710        4.62504       19.09872
H         -2.05370        5.59734       17.81708
H         -3.58636        4.77245       17.53299
H         -1.79522       -6.15331       16.48777
H         -2.96873       -5.40638       17.57354
H         -3.27264       -5.43221       15.83674
H          5.24980        4.89616        7.61933
H          4.51267        5.81210        8.93959
H          6.05767        4.99747        9.18428
H          5.90215       -5.25122       10.56397
H          4.44420       -5.97054        9.86853
H          5.61665       -5.16263        8.82621
                                                   
  eps=4.53299                                      
  epsinf=4.53299                                   
  RSolv=8.11                                       
   
