%mem=800MW
%nprocshared=32
%chk=Y6-HSO-scan-60-S1fromT1.chk
%rwf=Y6-HSO-scan-60-S1fromT1.rwf
#p wB97XD/6-31g** td(50-50,nstates=5) 6D 10F nosymm GFInput scf=(MaxCycle=20000) iop(3/107=0016000000,3/108=0016000000) SCRF=(PCM,Solvent=Generic,Read)

 HSO

0 1
C               0.0352600000      0.6240000000      0.0489400000
C               0.1048900000      0.4168900000      1.4308300000
C               1.2546900000      0.8223000000      2.1313100000
C               2.3475300000      1.4135400000      1.5073700000
C               2.2685500000      1.6150500000      0.1334900000
C               1.1227000000      1.2291900000     -0.5777400000
C              -0.8419600000     -0.2101100000      2.3946800000
C              -0.2901400000     -0.0368500000      3.7298100000
C               1.0784600000      0.5262500000      3.5773400000
C              -0.9994700000     -0.2062700000      4.9229800000
C              -0.6631700000     -0.1391700000      6.2920100000
S               0.9737500000     -0.0012600000      6.9728800000
C               0.3407400000     -0.1440000000      8.5913800000
C              -1.0752200000     -0.2462700000      8.5847000000
C              -1.6601900000     -0.2432500000      7.3249700000
S              -1.7739300000     -0.3345300000     10.2181600000
C              -0.1615500000     -0.2279600000     10.8857600000
C               0.8517200000     -0.1241900000      9.8891900000
N               2.0922100000     -0.0664900000     10.4965700000
C               1.8784300000     -0.0959400000     11.8817300000
C               0.4593200000     -0.2430200000     12.1277700000
C               2.7664900000      0.0419900000     12.9593700000
C               2.3168300000     -0.2359500000     14.3073700000
C               0.9207900000     -0.4804800000     14.5660800000
C              -0.0250500000     -0.4235000000     13.4726700000
N               4.1283600000      0.3726500000     13.0004700000
C               4.5410700000      0.2458300000     14.3137900000
C               3.4335200000     -0.1346400000     15.1261900000
C               5.7180000000      0.4112100000     15.0435400000
C               5.5204900000      0.1590300000     16.4266800000
S               3.8462600000     -0.2994900000     16.8175100000
C               6.6531100000      0.2996400000     17.2179700000
C               7.7968700000      0.6683100000     16.4245100000
S               7.3692600000      0.8597300000     14.7093100000
N              -1.2859600000     -0.6039600000     13.8431600000
S              -1.2692400000     -0.8393100000     15.4846900000
N               0.3627800000     -0.7095800000     15.7475700000
C               9.0888800000      0.7765700000     16.9828400000
C              10.3332600000      1.1931600000     16.4973600000
C              11.5825000000      1.1574000000     17.2426700000
C              12.5697300000      1.9991200000     16.5100400000
C              11.9894300000      2.4219000000     15.3015900000
C              10.5970500000      1.9091900000     15.2198000000
C              12.6680100000      3.1992000000     14.3699000000
C              13.9726700000      3.5711400000     14.6755500000
C              14.5639300000      3.1652500000     15.8808400000
C              13.8837300000      2.3771300000     16.8071500000
F              15.8222000000      3.5522600000     16.1432900000
F              14.6822500000      4.3269200000     13.8222800000
C              11.8727800000      0.4092900000     18.3843100000
C              13.1087100000      0.4901500000     19.0982600000
N              14.0871500000      0.5163200000     19.7339700000
O               9.8333300000      2.0787800000     14.2776000000
C               6.6883200000      0.0953400000     18.7120400000
C               4.8397900000      1.2353100000     12.0442500000
C               3.3179000000     -0.4855400000      9.7982100000
C              -3.1437600000     -0.3340400000      7.0673400000
O               1.9091800000      0.7377600000      4.4519700000
C              -1.9907800000     -0.9142500000      2.0337200000
C              -2.5044500000     -0.9716700000      0.7006900000
N              -2.9841400000     -1.0493800000     -0.3604000000
F               3.2866000000      2.1861300000     -0.5300600000
F               1.0798700000      1.4519300000     -1.9006900000
C              11.0068400000     -0.5832800000     18.9415900000
N              10.3758100000     -1.4306400000     19.4373600000
C              -2.7556000000     -1.7268400000      2.9285500000
N              -3.4102600000     -2.4357500000      3.5848800000
H              14.3985800000      2.1030300000     17.7142900000
H              12.2088400000      3.5096600000     13.4410300000
H               9.0923500000      0.4845600000     18.0248100000
H               7.2624900000     -0.7949700000     18.9767400000
H               5.6830500000     -0.0299800000     19.1133900000
H               7.1375300000      0.9522100000     19.2192300000
H               5.2461900000      2.0974000000     12.5722200000
H               4.1389800000      1.6069400000     11.3033900000
H               5.6497800000      0.6980400000     11.5526700000
H               3.0750900000     -1.2892600000      9.1040100000
H               4.0283000000     -0.8773900000     10.5196800000
H               3.7643800000      0.3426300000      9.2496100000
H              -3.4038600000     -1.2769300000      6.5822900000
H              -3.4875800000      0.4824600000      6.4281400000
H              -3.7048800000     -0.2778900000      7.9995300000
H              -2.0532900000     -0.4115700000      4.7873100000
H               3.2298100000      1.7110100000      2.0581200000
H              -0.8138500000      0.3519500000     -0.5582200000

  eps=3.36
  epsinf=3.36
  RSolv=7.28
 
