%mem=800MW
%nprocshared=32
%chk=Y6-HSO-scan-110-T1fromS1.chk
%rwf=Y6-HSO-scan-110-T1fromS1.rwf
#p wB97XD/6-31g** td(50-50,nstates=5) 6D 10F nosymm GFInput scf=(MaxCycle=20000) iop(3/107=0016000000,3/108=0016000000) SCRF=(PCM,Solvent=Generic,Read)

 HSO

0 1
C               0.0284300000      0.5101800000      0.0888500000
C               0.1233700000      0.2760500000      1.4663300000
C               1.3303100000      0.5486500000      2.1371100000
C               2.4602300000      1.0287900000      1.4803400000
C               2.3571400000      1.2536300000      0.1136400000
C               1.1516000000      1.0029800000     -0.5661400000
C              -0.8531600000     -0.2624200000      2.4443000000
C              -0.2628900000     -0.0950600000      3.7825300000
C               1.1708000000      0.2713500000      3.5879400000
C              -0.9796000000     -0.0720100000      4.9576700000
C              -0.6326300000      0.0637100000      6.3372800000
S               1.0001100000     -0.0770900000      7.0134800000
C               0.3658600000      0.0276400000      8.6205000000
C              -1.0299000000      0.2087800000      8.6210100000
C              -1.6157900000      0.2315500000      7.3433700000
S              -1.7218300000      0.3751000000     10.2436900000
C              -0.1188100000      0.2020800000     10.9132800000
C               0.8846600000      0.0352200000      9.9348700000
N               2.1120600000     -0.1185800000     10.5429700000
C               1.9033200000     -0.0191300000     11.9193300000
C               0.4971300000      0.1358200000     12.1671600000
C               2.8123800000     -0.0136800000     13.0036300000
C               2.3185600000     -0.1465300000     14.3530600000
C               0.9028000000     -0.1004500000     14.6121300000
C              -0.0110100000      0.1124000000     13.5136300000
N               4.2025900000      0.0717800000     13.0357200000
C               4.5902800000     -0.0764200000     14.3522600000
C               3.4374000000     -0.2180500000     15.1763800000
C               5.7825300000     -0.0877600000     15.0807300000
C               5.5418900000     -0.2487900000     16.4656100000
S               3.8224900000     -0.3824400000     16.8715200000
C               6.6972100000     -0.2812500000     17.2713500000
C               7.8470600000     -0.1215300000     16.4874200000
S               7.4927000000      0.0135100000     14.7651000000
N              -1.2824200000      0.2058000000     13.8834000000
S              -1.3102900000      0.0262500000     15.5282300000
N               0.3105200000     -0.1725600000     15.7974100000
C               9.2512700000     -0.1857900000     16.9184000000
C              10.0327000000      0.8883900000     17.2725800000
C              11.4151100000      0.9368100000     17.6919400000
C              11.7469100000      2.3474300000     17.9705800000
C              10.6166300000      3.1633600000     17.7310900000
C               9.4989300000      2.3010200000     17.2864700000
C              10.6199500000      4.5411700000     17.9063100000
C              11.8017600000      5.1367900000     18.3387200000
C              12.9327200000      4.3482100000     18.5814600000
C              12.9299700000      2.9645400000     18.4062600000
F              14.0626600000      4.9519500000     18.9986600000
F              11.8681200000      6.4733300000     18.5273700000
C              12.3144700000     -0.1621900000     17.8195000000
C              13.6670000000     -0.0382900000     18.2348800000
N              14.7886800000      0.0026300000     18.5710800000
O               8.3682200000      2.6637300000     16.9913400000
C               6.7087200000     -0.4460600000     18.7691000000
C               5.0703600000      0.7161000000     12.0352600000
C               3.2488200000     -0.7661200000      9.8678300000
C              -3.0953300000      0.4104000000      7.0991700000
O               2.0439000000      0.3634000000      4.4383000000
C              -2.0283600000     -0.9185600000      2.1309100000
C              -2.5427700000     -1.0400500000      0.7988900000
N              -3.0157400000     -1.1660400000     -0.2587600000
F               3.4034300000      1.7220200000     -0.5785100000
F               1.0940400000      1.2511000000     -1.8810700000
C              11.9677200000     -1.5108800000     17.5421000000
N              11.7379000000     -2.6402600000     17.3273700000
C              -2.8285700000     -1.6268000000      3.0873300000
N              -3.5075200000     -2.2474400000      3.8030000000
H              13.8411800000      2.4258700000     18.6138600000
H               9.7387900000      5.1399600000     17.7164400000
H               9.6666800000     -1.1855500000     16.9263800000
H               7.7294900000     -0.4992500000     19.1436400000
H               6.1875000000     -1.3606700000     19.0639100000
H               6.2117800000      0.3983200000     19.2543400000
H               5.6410300000      1.5055900000     12.5217600000
H               4.4551900000      1.1799200000     11.2713600000
H               5.7525000000     -0.0021700000     11.5839600000
H               2.8703400000     -1.5433000000      9.2057200000
H               3.8810300000     -1.2473100000     10.6069200000
H               3.8276800000     -0.0479500000      9.2894100000
H              -3.2896100000      1.1307200000      6.3033500000
H              -3.5919200000      0.7796800000      7.9958000000
H              -3.5652700000     -0.5377000000      6.8289600000
H              -2.0521400000     -0.1489400000      4.8316200000
H               3.3867000000      1.2256700000      2.0025200000
H              -0.8689900000      0.3464100000     -0.4869400000

  eps=3.36
  epsinf=3.36
  RSolv=7.28
 
