%mem=800MW
%nprocshared=32
%chk=Y6-HSO-scan-60-S1fromT2.chk
%rwf=Y6-HSO-scan-60-S1fromT2.rwf
#p wB97XD/6-31g** td(50-50,nstates=5) 6D 10F nosymm GFInput scf=(MaxCycle=20000) iop(3/107=0016000000,3/108=0016000000) SCRF=(PCM,Solvent=Generic,Read)

 HSO

0 1
C               0.0746500000      0.5769300000      0.0428100000
C               0.1273600000      0.4007400000      1.4301000000
C               1.2605600000      0.8454400000      2.1365100000
C               2.3490600000      1.4475100000      1.5150700000
C               2.2849100000      1.6206900000      0.1366700000
C               1.1579300000      1.1930500000     -0.5809400000
C              -0.8191000000     -0.2247500000      2.3906600000
C              -0.2902200000     -0.0276900000      3.7262400000
C               1.0757600000      0.5635900000      3.5819500000
C              -1.0095100000     -0.1897800000      4.9154700000
C              -0.6807100000     -0.1155400000      6.2881300000
S               0.9545200000     -0.0029100000      6.9773100000
C               0.3122200000     -0.1365500000      8.5896500000
C              -1.0981600000     -0.2135900000      8.5832000000
C              -1.6813900000     -0.2024900000      7.3141000000
S              -1.7978900000     -0.2756800000     10.2130200000
C              -0.1862300000     -0.1884500000     10.8822400000
C               0.8213300000     -0.1144100000      9.9017000000
N               2.0634900000     -0.0731500000     10.5133100000
C               1.8436700000     -0.0847700000     11.8880900000
C               0.4439800000     -0.2004500000     12.1407900000
C               2.7584700000      0.0168700000     12.9849800000
C               2.3112500000     -0.2729500000     14.3090500000
C               0.9157800000     -0.4963200000     14.5691600000
C              -0.0362700000     -0.3908900000     13.4818100000
N               4.1082300000      0.3559400000     13.0195800000
C               4.5279500000      0.2260200000     14.3331800000
C               3.4419000000     -0.1644100000     15.1398500000
C               5.7188300000      0.3984400000     15.0637400000
C               5.5254300000      0.1374400000     16.4381400000
S               3.8589500000     -0.3332400000     16.8283200000
C               6.6675700000      0.2812200000     17.2291900000
C               7.8017100000      0.6607500000     16.4342700000
S               7.3621100000      0.8594700000     14.7226700000
N              -1.3005200000     -0.5500800000     13.8586300000
S              -1.2767400000     -0.8211200000     15.4915600000
N               0.3561500000     -0.7375100000     15.7500400000
C               9.0987300000      0.7707900000     16.9868300000
C              10.3380800000      1.2002100000     16.4986000000
C              11.5926600000      1.1592100000     17.2259000000
C              12.5702700000      2.0078300000     16.4946000000
C              11.9766100000      2.4564100000     15.3004900000
C              10.5868700000      1.9426600000     15.2243400000
C              12.6464800000      3.2475700000     14.3738200000
C              13.9567000000      3.6085800000     14.6680200000
C              14.5618500000      3.1756400000     15.8570800000
C              13.8911300000      2.3735900000     16.7784700000
F              15.8259600000      3.5496200000     16.1086600000
F              14.6585800000      4.3776200000     13.8194700000
C              11.8900100000      0.3974400000     18.3660500000
C              13.1176500000      0.4934300000     19.0883800000
N              14.0918200000      0.5342400000     19.7310300000
O               9.8097500000      2.1186300000     14.2962600000
C               6.7078900000      0.0687600000     18.7211500000
C               4.8360500000      1.1848400000     12.0473100000
C               3.2888000000     -0.4880300000      9.8127600000
C              -3.1647000000     -0.2703600000      7.0524800000
O               1.8883600000      0.7957400000      4.4662000000
C              -1.9638200000     -0.9520600000      2.0321000000
C              -2.4852900000     -1.0086700000      0.7043800000
N              -2.9699100000     -1.0828200000     -0.3554600000
F               3.2989200000      2.2022200000     -0.5250500000
F               1.1294000000      1.3852700000     -1.9088000000
C              11.0396100000     -0.6177700000     18.9009700000
N              10.4180600000     -1.4837600000     19.3777700000
C              -2.7002800000     -1.7854500000      2.9284600000
N              -3.3298500000     -2.5117700000      3.5914700000
H              14.4184400000      2.0783100000     17.6717200000
H              12.1765200000      3.5767300000     13.4568400000
H               9.1112800000      0.4642900000     18.0245000000
H               7.2772900000     -0.8273000000     18.9779100000
H               5.7035700000     -0.0521700000     19.1260100000
H               7.1658300000      0.9190600000     19.2315800000
H               5.2722700000      2.0382400000     12.5645400000
H               4.1405600000      1.5727700000     11.3100200000
H               5.6259400000      0.6189500000     11.5551000000
H               3.0430400000     -1.2875400000      9.1153000000
H               3.9987200000     -0.8859200000     10.5310000000
H               3.7349200000      0.3422800000      9.2672700000
H              -3.4399400000     -1.2149600000      6.5782600000
H              -3.4921200000      0.5431600000      6.4008900000
H              -3.7275700000     -0.1926600000      7.9819600000
H              -2.0621200000     -0.3963300000      4.7729300000
H               3.2172600000      1.7744500000      2.0714600000
H              -0.7583200000      0.2718400000     -0.5710500000

  eps=3.36
  epsinf=3.36
  RSolv=7.28
 
