%mem=1000MW
%nprocshared=40
#p wB97XD/6-31g** nosymm pop=esp opt td=(nstates=2,root=1) scf=(MaxCycle=20000) iop(3/107=0001100000,3/108=0001100000) SCRF=(PCM,Solvent=Generic,Read)

 IT-4Cl opt-TDdft

0 1
C         -0.01232        0.05294        0.04947
C          0.03891        0.03192        1.45092
C          1.30399       -0.02957        2.05808
C          2.47005       -0.04971        1.29021
C          2.42344       -0.01126       -0.11299
C          1.15693        0.03720       -0.71508
C         -1.25470       -0.04571        2.30351
C         -2.51022        0.39586        1.54322
C         -3.39818       -0.69114        1.37697
C         -2.85646       -1.88298        1.93107
C         -1.59218       -1.54345        2.51466
S         -4.87530       -0.29161        0.54165
C         -4.31692        1.37131        0.40630
C         -3.03467        1.56428        0.99208
C         -4.87812        2.52284       -0.15771
C         -4.02950        3.62315       -0.03948
S         -2.53872        3.23113        0.81754
C         -0.83471       -2.51250        3.14278
C         -1.34823       -3.82445        3.18238
C         -2.60556       -4.16836        2.58937
C         -3.36494       -3.20340        1.96470
C         -0.81439       -5.02580        3.75791
C         -1.65638       -6.11128        3.52351
C         -2.89875       -5.68391        2.73250
S          0.61623       -5.39707        4.68743
C          0.08298       -7.06866        4.78013
C         -1.14624       -7.28720        4.11656
S         -1.64617       -8.94750        4.23838
C         -0.19987       -9.34470        5.18600
C          0.61431       -8.21474        5.37722
C         -4.33051        5.01597       -0.40905
C         -4.03511        5.63028       -1.59827
C         -3.27575        4.94102       -2.71319
C         -3.06132        5.97168       -3.75955
C         -3.68529        7.17166       -3.34295
C         -4.29519        6.99252       -2.01902
C         -2.42524        5.83825       -4.98306
C         -2.38988        6.94163       -5.84839
C         -3.01713        8.14131       -5.45866
C         -3.66851        8.26453       -4.22329
Cl        -1.57118        6.77526       -7.39486
Cl        -3.01407        9.54492       -6.51514
O         -2.92158        3.77153       -2.75101
C         -5.02481        7.98959       -1.29790
C         -4.92454        9.38109       -1.56403
N         -4.85843       10.53863       -1.73724
C         -1.19963        0.75787        3.63164
C         -0.49674        1.97089        3.71200
C         -0.51482        2.73614        4.87905
C         -1.23872        2.32779        6.01195
C         -1.94959        1.12162        5.92259
C         -1.93686        0.35389        4.75479
C         -2.94906       -6.28199        1.29968
C         -4.14146       -6.26612        0.55764
C         -4.17501       -6.72053       -0.76198
C         -3.02108       -7.20735       -1.39790
C         -1.82997       -7.21105       -0.65640
C         -1.79185       -6.75418        0.66383
C         -4.15546       -5.99300        3.58960
C         -4.80960       -7.23036        3.48295
C         -5.89608       -7.54454        4.30242
C         -6.37033       -6.64086        5.26613
C         -5.70263       -5.41115        5.38155
C         -4.61567       -5.09330        4.56368
C          0.17401      -10.59868        5.76519
C         -0.36579      -11.86594        5.76674
C         -1.52098      -12.34808        4.95492
C         -1.50618      -13.83156        5.05356
C         -0.46871      -14.23980        5.91011
C          0.19922      -13.03286        6.46863
C         -0.24365      -15.60563        6.10343
C         -1.06770      -16.53125        5.44890
C         -2.11646      -16.10363        4.60404
C         -2.33527      -14.73649        4.40437
C         -3.06756       -7.73460       -2.82099
C         -7.57675       -6.96934        6.12737
O         -2.31390      -11.67899        4.30872
C          1.09343      -13.03210        7.52506
C          1.58623      -14.21984        8.16103
N          2.03525      -15.14375        8.72765
Cl        -0.75339      -18.23014        5.70971
Cl        -3.15386      -17.24428        3.78482
C         -1.22953        3.15546        7.28465
C          3.69284        0.01092       -0.94551
C          1.59682      -11.84867        8.16211
N          2.03270      -10.93529        8.74161
C         -5.92691        7.69105       -0.24299
N         -6.69322        7.48577        0.62077
H         -1.96601        4.90141       -5.26857
H         -4.14728        9.20067       -3.98400
H         -4.85272        5.56457        0.36602
H         -5.84111        2.58179       -0.64198
H          0.11937       -2.28151        3.59290
H         -4.31775       -3.43553        1.51224
H          1.54034       -8.24742        5.93316
H          1.10773      -10.49602        6.30223
H          0.54943      -15.98090        6.72911
H         -3.12833      -14.39382        3.75418
H         -2.51049       -0.56429        4.73433
H          3.42862       -0.09299        1.79724
H          1.39401       -0.05256        3.13696
H          1.07229        0.06373       -1.79653
H         -0.96353        0.08121       -0.46637
H         -2.52777        0.77117        6.77144
H          0.04256        3.66696        4.90213
H          0.07681        2.32626        2.86607
H         -5.05886       -5.90551        1.00558
H         -5.11784       -6.69530       -1.29897
H         -0.84438       -6.76716        1.18751
H         -0.91355       -7.57513       -1.10964
H         -4.12900       -4.13564        4.69925
H         -6.03098       -4.68602        6.11922
H         -6.37697       -8.51005        4.18368
H         -4.48687       -7.95692        2.74883
H         -1.36564        4.21831        7.06833
H         -2.01945        2.84699        7.97195
H         -0.27326        3.04915        7.80829
H          3.54598       -0.47465       -1.91291
H          4.00660        1.04239       -1.14075
H          4.51750       -0.49157       -0.43497
H         -7.65396       -8.04247        6.31585
H         -7.53273       -6.45771        7.09137
H         -8.50245       -6.65656        5.63139
H         -3.83963       -7.23326       -3.40895
H         -2.11088       -7.59685       -3.32992
H         -3.29235       -8.80709       -2.82919

  eps=4.88617
  epsinf=4.88617
  RSolv=8.36
 
