%mem=1000MW
%nprocshared=40
%Oldchk=IT-4Cl-TDDFT-scan-90-T1.chk
%chk=IT-4Cl-NTO-T1.chk
#p wB97XD/6-31g** Geom=AllCheck Guess=(Read,Only) Density=(Check,Transition=1) Pop=(Minimal,NTO,SaveNTO)

0 1
