%mem=1000MW
%nprocshared=40
#p wB97XD/6-31g** nosymm pop=esp opt td=(triplet,nstates=3,root=2) scf=(MaxCycle=20000) iop(3/107=0001100000,3/108=0001100000) SCRF=(PCM,Solvent=Generic,Read)

 IT-4Cl opt-TDdft

0 1
C         -0.00566        0.04792        0.01080
C          0.05292        0.00435        1.41133
C          1.32023       -0.09019        2.00976
C          2.48126       -0.12349        1.23503
C          2.42748       -0.06432       -0.16728
C          1.15894        0.01977       -0.76081
C         -1.23597       -0.05566        2.27467
C         -2.49062        0.38893        1.51453
C         -3.37085       -0.70117        1.32849
C         -2.83444       -1.89305        1.88809
C         -1.58097       -1.55102        2.49244
S         -4.84972       -0.29763        0.49828
C         -4.30279        1.37150        0.39203
C         -3.02412        1.56383        0.98698
C         -4.86968        2.52785       -0.15486
C         -4.03092        3.63387       -0.01249
S         -2.54125        3.23756        0.84599
C         -0.83845       -2.51603        3.14448
C         -1.35288       -3.82737        3.18095
C         -2.59620       -4.17556        2.56158
C         -3.34249       -3.21380        1.91633
C         -0.83074       -5.02520        3.77465
C         -1.66459       -6.11299        3.52520
C         -2.89219       -5.69059        2.70894
S          0.57786       -5.38925        4.73985
C          0.04583       -7.06146        4.82745
C         -1.16586       -7.28589        4.13428
S         -1.65953       -8.94884        4.24230
C         -0.24213       -9.33596        5.23623
C          0.56200       -8.20256        5.44707
C         -4.34081        5.03128       -0.35368
C         -4.04110        5.67240       -1.53021
C         -3.32625        4.98058       -2.66811
C         -3.17652        5.99637       -3.73946
C         -3.76559        7.20467       -3.29948
C         -4.30578        7.03751       -1.93904
C         -2.58749        5.85051       -4.98380
C         -2.57239        6.95017       -5.85555
C         -3.15897        8.16033       -5.44183
C         -3.75470        8.29777       -4.17856
Cl        -1.82236        6.76470       -7.43416
Cl        -3.17301        9.56371       -6.49851
O         -2.94961        3.81774       -2.70459
C         -4.96667        8.05151       -1.18132
C         -5.10762        9.40064       -1.60599
N         -5.25272       10.52720       -1.89526
C         -1.16101        0.75255        3.59788
C         -0.42695        1.94717        3.67646
C         -0.42491        2.71348        4.84301
C         -1.15946        2.32544        5.97624
C         -1.90226        1.13862        5.88822
C         -1.90855        0.36924        4.72148
C         -2.92071       -6.29976        1.28103
C         -4.09818       -6.27642        0.51563
C         -4.11195       -6.74310       -0.80005
C         -2.95201       -7.25014       -1.40854
C         -1.77557       -7.26120       -0.64388
C         -1.75737       -6.79229        0.67251
C         -4.16160       -5.99182        3.55081
C         -4.82679       -7.22189        3.43390
C         -5.92249       -7.52905        4.24453
C         -6.39507       -6.62505        5.20818
C         -5.71712       -5.40139        5.33265
C         -4.62124       -5.09101        4.52468
C          0.10540      -10.58215        5.84716
C         -0.41861      -11.85557        5.81533
C         -1.48985      -12.36133        4.90796
C         -1.44069      -13.84518        4.99840
C         -0.47395      -14.23140        5.94336
C          0.10941      -13.01076        6.56248
C         -0.23112      -15.59150        6.15327
C         -0.96792      -16.53517        5.42476
C         -1.94942      -16.13041        4.49238
C         -2.18536      -14.76846        4.27674
C         -2.97704       -7.79159       -2.82680
C         -7.60811       -6.94389        6.06385
O         -2.24530      -11.70824        4.20334
C          0.90035      -12.98902        7.69810
C          1.36854      -14.16482        8.37312
N          1.78825      -15.07355        8.97074
Cl        -0.63085      -18.22648        5.70620
Cl        -2.88254      -17.29405        3.58430
C         -1.13210        3.15729        7.24601
C          3.69218       -0.05845       -1.00724
C          1.29924      -11.79284        8.38368
N          1.64261      -10.86708        9.00381
C         -5.56206        7.83946        0.09101
N         -6.07651        7.72784        1.13894
H         -2.14757        4.90792       -5.28033
H         -4.19329        9.24748       -3.91917
H         -4.85468        5.56290        0.43759
H         -5.83079        2.58765       -0.64275
H          0.10440       -2.28186        3.61615
H         -4.28610       -3.44810        1.44605
H          1.46904       -8.22904        6.03381
H          1.00007      -10.46785        6.44532
H          0.51276      -15.94708        6.84723
H         -2.92760      -14.44373        3.56085
H         -2.50724       -0.53294        4.70131
H          3.44158       -0.19324        1.73572
H          1.41621       -0.12777        3.08765
H          1.06865        0.06621       -1.84112
H         -0.95845        0.10528       -0.49940
H         -2.48994        0.80474        6.73720
H          0.15683        3.62934        4.86540
H          0.15558        2.28679        2.83016
H         -5.01955       -5.90103        0.94294
H         -5.04404       -6.71204       -1.35521
H         -0.82024       -6.81077        1.21438
H         -0.85524       -7.64075       -1.07605
H         -4.12756       -4.13777        4.66634
H         -6.04479       -4.67567        6.07008
H         -6.41110       -8.48977        4.11864
H         -4.50347       -7.94996        2.70159
H         -1.29795        4.21616        7.02973
H         -1.89558        2.83448        7.95608
H         -0.15947        3.07500        7.74285
H          3.53236       -0.53849       -1.97538
H          4.02101        0.96861       -1.20098
H          4.51189       -0.57539       -0.50323
H         -7.73362       -8.02035        6.19791
H         -7.53064       -6.48563        7.05256
H         -8.52241       -6.56119        5.59663
H         -3.74675       -7.30349       -3.42868
H         -2.01579       -7.64988       -3.32613
H         -3.19143       -8.86623       -2.82677

  eps=4.88617
  epsinf=4.88617
  RSolv=8.36
 
