%mem=1000MW
%nprocshared=40
#p wB97XD/6-31g** nosymm pop=esp opt td=(triplet,nstates=3,root=2) scf=(MaxCycle=20000) iop(3/107=0001100000,3/108=0001100000) SCRF=(PCM,Solvent=Generic,Read)

 IT-4Cl opt-TDdft

0 1
C          0.78726       -0.07483        0.33670
C          0.57624       -0.01230        1.72191
C          1.70744       -0.01605        2.55480
C          2.99580       -0.06675        2.01901
C          3.21104       -0.12047        0.63204
C          2.07827       -0.12391       -0.19613
C         -0.85384       -0.07774        2.31643
C         -1.94632        0.36041        1.33050
C         -2.80113       -0.73094        1.02625
C         -2.38843       -1.90777        1.68509
C         -1.23070       -1.57479        2.47858
S         -4.12034       -0.32477       -0.05656
C         -3.52732        1.33640       -0.11627
C         -2.35942        1.52224        0.69086
C         -3.97491        2.46526       -0.77817
C         -3.16385        3.59915       -0.51063
S         -1.82707        3.18143        0.60059
C         -0.60177       -2.53369        3.23350
C         -1.12944       -3.85462        3.21120
C         -2.28998       -4.18687        2.42189
C         -2.91662       -3.22908        1.66382
C         -0.71668       -5.03369        3.87013
C         -1.54028       -6.13365        3.52673
C         -2.64228       -5.69305        2.55336
S          0.56345       -5.42542        5.00349
C         -0.00841       -7.09485        5.02846
C         -1.14454       -7.29382        4.18718
S         -1.67841       -8.95861        4.24103
C         -0.38105       -9.37537        5.38403
C          0.41652       -8.23338        5.68670
C         -3.27140        4.95144       -0.90103
C         -4.06511        5.59234       -1.86235
C         -4.76453        4.96708       -3.02658
C         -5.13661        6.09124       -3.93390
C         -4.75773        7.31258       -3.35289
C         -4.16188        7.03631       -2.01463
C         -5.75210        6.01536       -5.17402
C         -5.99135        7.20541       -5.87448
C         -5.60711        8.43841       -5.31068
C         -4.99314        8.49901       -4.04907
Cl        -6.76292        7.11098       -7.44191
Cl        -5.87712        9.94642       -6.15664
O         -4.97724        3.78336       -3.25342
C         -3.86086        8.00628       -1.05667
C         -3.92369        9.41539       -1.29710
N         -3.94163       10.57573       -1.42327
C         -1.04563        0.73690        3.62482
C         -0.40338        1.97124        3.81272
C         -0.64586        2.74425        4.95104
C         -1.54288        2.32263        5.94493
C         -2.19379        1.09457        5.74679
C         -1.95421        0.31970        4.61019
C         -2.50718       -6.33467        1.14760
C         -3.57983       -6.31709        0.24107
C         -3.43707       -6.81940       -1.05414
C         -2.21870       -7.35505       -1.50177
C         -1.14507       -7.35707       -0.59783
C         -1.28391       -6.85332        0.69766
C         -4.01396       -5.93936        3.23772
C         -4.70088       -7.15136        3.06605
C         -5.89326       -7.40742        3.74783
C         -6.44475       -6.46963        4.63441
C         -5.74678       -5.26476        4.81564
C         -4.55506       -5.00512        4.13537
C         -0.09148      -10.62239        5.98656
C         -0.64116      -11.90360        5.91726
C         -1.75903      -12.33639        5.03648
C         -1.89232      -13.80726        5.21018
C         -0.94422      -14.25229        6.14618
C         -0.17592      -13.07562        6.65309
C         -0.87548      -15.61591        6.44027
C         -1.75858      -16.49932        5.79958
C         -2.71048      -16.03215        4.87097
C         -2.77633      -14.66506        4.57358
C         -2.07427       -7.94033       -2.89525
C         -7.75844       -6.73467        5.34814
O         -2.44472      -11.64363        4.29549
C          0.76647      -13.13700        7.68101
C          1.17442      -14.34820        8.32651
N          1.56426      -15.28791        8.89876
Cl        -1.63658      -18.20011        6.19326
Cl        -3.82056      -17.11834        4.06678
C         -1.77760        3.14760        7.19775
C          4.61519       -0.15105        0.05480
C          1.42969      -12.00822        8.26120
N          2.00433      -11.14582        8.79882
C         -3.52330        7.72127        0.30610
N         -3.27009        7.57632        1.43636
H         -6.03941        5.06128       -5.59429
H         -4.71331        9.46501       -3.66166
H         -2.59340        5.60681       -0.36915
H         -4.83332        2.51480       -1.42546
H          0.26661       -2.30207        3.83351
H         -3.78635       -3.45923        1.06551
H          1.25432       -8.27933        6.36739
H          0.76754      -10.53098        6.63603
H         -0.16546      -16.02527        7.13938
H         -3.49894      -14.28953        3.86220
H         -2.48888       -0.61479        4.50048
H          3.84340       -0.06569        2.69720
H          1.59232        0.02527        3.63066
H          2.19801       -0.17016       -1.27384
H         -0.05399       -0.09431       -0.34500
H         -2.90191        0.73408        6.48615
H         -0.12684        3.69104        5.05998
H          0.30069        2.33667        3.07652
H         -4.54168       -5.91991        0.54066
H         -4.29231       -6.79396       -1.72215
H         -0.42274       -6.86814        1.35372
H         -0.18354       -7.75755       -0.90296
H         -4.05149       -4.06397        4.31574
H         -6.13247       -4.51479        5.49904
H         -6.39409       -8.35618        3.58435
H         -4.31742       -7.90573        2.39164
H         -1.64795        4.21485        7.00488
H         -2.78270        2.99482        7.59723
H         -1.06624        2.86758        7.98294
H          4.63073       -0.60847       -0.93676
H          5.01899        0.86286       -0.04364
H          5.29759       -0.71354        0.69665
H         -7.91948       -7.80316        5.50743
H         -7.79318       -6.23846        6.32074
H         -8.60244       -6.35933        4.75842
H         -2.80098       -7.51192       -3.58907
H         -1.07503       -7.76608       -3.30159
H         -2.23578       -9.02407       -2.87742

  eps=4.88617
  epsinf=4.88617
  RSolv=8.36
 
