%mem=1000MW
%nprocshared=40
#p wB97XD/6-31g** opt td=(nstates=2,root=1) scf=(MaxCycle=20000) iop(3/107=0016000000,3/108=0016000000) nosymm pop=esp SCRF=(PCM,Solvent=Generic,Read)

 Y6

0 1
C        -10.82963       -8.41628        0.63490
C        -10.95807       -7.16651        0.03220
C         -9.83106       -6.33913       -0.01096
C         -8.62151       -6.79178        0.54514
C         -8.48680       -8.04225        1.13793
C         -9.61410       -8.85626        1.17912
C         -9.61072       -4.98438       -0.58838
C         -7.58406       -5.73757        0.38917
C         -8.26200       -4.57008       -0.23795
F        -11.89675       -9.22795        0.70013
F         -9.55433      -10.07288        1.74435
O         -6.41528       -5.83302        0.74145
C        -10.52047       -4.30736       -1.40118
C        -10.20437       -3.13731       -2.16101
C        -11.86027       -4.74692       -1.63672
N        -12.96709       -5.04293       -1.85909
N        -10.01538       -2.20492       -2.83695
H        -11.92204       -6.89098       -0.36562
H         -7.54819       -8.37974        1.55652
C         -7.77867       -3.25914       -0.30715
C         -6.51628       -2.66314       -0.10195
H         -8.52975       -2.51956       -0.55310
S         -4.96861       -3.51848        0.07894
C         -4.10196       -2.00535        0.08236
C         -6.33571       -1.23523       -0.11222
C         -4.99148       -0.90209       -0.00985
C         -7.46340       -0.23909       -0.22020
H         -7.94402       -0.28929       -1.19922
H         -7.09877        0.77859       -0.08449
H         -8.22543       -0.41829        0.54196
S         -4.15573        0.66802        0.00615
C         -2.62998       -0.17465        0.14135
C         -2.77229       -1.59261        0.16428
C         -1.27910        0.12238        0.25924
C         -0.57953       -1.14465        0.30014
N         -1.52600       -2.17892        0.28306
C         -0.54818        1.35644        0.39406
C          0.88485        1.31458        0.58580
C          1.57058        0.04967        0.51412
C          0.82389       -1.16976        0.28552
C         -1.35206       -3.52441        0.85266
H         -2.11792       -3.69390        1.60876
H         -0.38674       -3.58675        1.34543
H         -1.42669       -4.29310        0.08466
N         -1.05815        2.58084        0.41623
N          1.43882        2.50775        0.75695
S          0.21013        3.61832        0.67230
C          2.91194       -0.30693        0.54637
C          3.00083       -1.70598        0.29100
N          1.73148       -2.22437        0.11673
C          1.49263       -3.46517       -0.63586
H          2.24988       -3.56063       -1.41314
H          0.52574       -3.40877       -1.12655
H          1.53135       -4.33815        0.01444
C          4.31758       -2.16428        0.23686
C          5.24887       -1.11931        0.47272
S          4.47131        0.45617        0.75104
S          5.12533       -3.69374        0.01446
C          6.71326       -2.90776        0.16828
C          6.58393       -1.50208        0.44821
C          7.74624       -0.56714        0.67410
H          8.28482       -0.37585       -0.25645
H          8.45353       -0.97485        1.39948
H          7.40275        0.39233        1.06019
C          7.96992       -3.51770       -0.03297
C          8.39665       -4.83559       -0.22687
H          8.76913       -2.78805       -0.01568
C          7.60414       -6.07379        0.00399
C          9.76486       -5.23982       -0.51009
C          8.57315       -7.20150        0.00011
C          9.86067       -6.70687       -0.27294
C          8.31635       -8.54892        0.22670
C          9.39767       -9.42283        0.18808
C         10.69039       -8.94341       -0.07068
C         10.94185       -7.59378       -0.30909
C         10.79645       -4.44775       -1.01492
C         10.62374       -3.11265       -1.49833
C         12.14049       -4.90388       -1.18733
H          7.31845       -8.91599        0.42552
H         11.96010       -7.29441       -0.50116
O          6.39775       -6.17511        0.18887
F          9.21831      -10.73639        0.40107
F         11.71022       -9.81611       -0.08905
N         10.55768       -2.03665       -1.94524
N         13.25687       -5.20817       -1.33968
                                                   
  eps=3.36                                       
  epsinf=3.36                                    
  RSolv=7.28
 
