%mem=800MW
%nprocshared=64
#p wB97XD/6-31g** opt td=(nstates=2,root=1) pop=esp scf=(MaxCycle=20000) nosymm iop(3/107=0002300000,3/108=0002300000) SCRF=(PCM,Solvent=Generic,Read)

IT-2Cl

0  1
C         -0.47313        6.89472        3.40415
C         -1.57549        6.34842        4.07719
C         -1.54558        6.34621        5.48154
C         -0.46491        6.88786        6.18014
C          0.63280        7.45074        5.50913
C          0.60574        7.43798        4.10632
C         -2.73036        5.65764        3.30459
C         -2.81026        6.08530        1.83257
C         -2.50548        4.98975        0.98506
C         -2.19638        3.83174        1.72931
C         -2.34464        4.16433        3.12520
S         -2.60021        5.36516       -0.72655
C         -3.05390        7.01889       -0.31053
C         -3.12287        7.22672        1.10119
C         -3.35143        8.13662       -1.06506
C         -3.66372        9.27541       -0.26512
S         -3.55708        8.88356        1.46601
C         -2.12439        3.21911        4.09585
C         -1.73655        1.91331        3.68346
C         -1.56735        1.58690        2.28838
C         -1.79917        2.52878        1.31732
C         -1.45346        0.74742        4.42612
C         -1.06657       -0.32422        3.58145
C         -1.08836        0.12041        2.11244
S         -1.49056        0.33253        6.13079
C         -0.98593       -1.30691        5.71513
C         -0.80658       -1.48132        4.30879
S         -0.31161       -3.12017        3.94224
C         -0.33285       -3.55124        5.66694
C         -0.72749       -2.43729        6.46563
C         -4.03312       10.49489       -0.87813
C         -4.35777       11.77139       -0.41596
C         -4.22915       12.26880        0.98286
C         -4.44914       13.73728        0.93384
C         -4.74275       14.11836       -0.38864
C         -4.76460       12.89620       -1.24812
C         -4.38131       14.65782        1.97388
C         -4.60288       16.00932        1.69130
C         -4.88497       16.38906        0.37306
C         -4.96400       15.46774       -0.68110
H         -4.55477       16.75227        2.47608
Cl        -5.15246       18.09411        0.01807
O         -3.97368       11.61712        1.98807
C         -5.18029       12.87103       -2.58098
C         -5.52367       14.03604       -3.33842
N         -5.81212       14.93540       -4.02439
C         -4.12989        5.85337        3.94536
C         -4.47547        7.05924        4.57696
C         -5.75647        7.26106        5.09397
C         -6.74884        6.27204        4.99693
C         -6.40591        5.07633        4.34767
C         -5.12487        4.87129        3.82847
C          0.32228        0.17037        1.46808
C          0.47344        0.25916        0.07456
C          1.73459        0.40603       -0.50630
C          2.89797        0.47274        0.27738
C          2.74229        0.39017        1.66939
C          1.48152        0.24627        2.25392
C         -2.10786       -0.76966        1.35366
C         -1.70219       -1.94377        0.69963
C         -2.63316       -2.79169        0.09545
C         -4.00784       -2.50833        0.12449
C         -4.41079       -1.33942        0.78903
C         -3.48243       -0.48864        1.39369
C          0.00866       -4.78029        6.27752
C          0.39354       -6.03783        5.80954
C          0.38532       -6.50023        4.39272
C          0.61432       -7.96784        4.42385
C          0.80808       -8.37935        5.75560
C          0.75558       -7.17778        6.64212
C          1.01514       -9.73412        6.03259
C          1.02446      -10.62994        4.95373
C          0.84198      -10.21983        3.62700
C          0.63363       -8.86313        3.36003
C          4.27202        0.60420       -0.35511
C         -5.01378       -3.42209       -0.55245
O          0.20911       -5.82550        3.38585
C          1.08296       -7.17770        7.99930
C          1.39668       -8.35498        8.75061
N          1.65661       -9.26638        9.43203
Cl         1.27619      -12.34159        5.28789
H          0.85854      -10.94420        2.82376
C         -8.12773        6.48482        5.59550
C          1.78748        8.07684        6.27059
C          1.20709       -6.00259        8.80866
N          1.34810       -5.09516        9.52954
C         -5.37204       11.68154       -3.35532
N         -5.57118       10.76238       -4.04709
H         -4.16011       14.33581        2.98354
H         -5.18068       15.82197       -1.67528
H         -4.04071       10.38592       -1.95402
H         -3.36134        8.17254       -2.14488
H         -2.24070        3.44813        5.14535
H         -1.68382        2.29977        0.26768
H         -0.80376       -2.49977        7.54152
H         -0.07430       -4.70114        7.35297
H          1.15733      -10.11125        7.03179
H          0.48709       -8.51744        2.34461
H         -4.91291        3.93349        3.33072
H         -0.48326        6.87137        7.26539
H         -2.37142        5.92840        6.04353
H          1.43620        7.85675        3.54701
H         -0.43996        6.89854        2.32196
H         -7.14534        4.28872        4.24276
H         -5.98020        8.20533        5.57999
H         -3.74229        7.84838        4.68109
H         -0.39306        0.20819       -0.57287
H          1.80874        0.46950       -1.58736
H          1.41395        0.20015        3.33333
H          3.61396        0.44058        2.31421
H         -3.84563        0.39618        1.90130
H         -5.46484       -1.08594        0.84299
H         -2.27659       -3.68894       -0.40012
H         -0.65342       -2.20575        0.65086
H         -8.49248        7.49789        5.40707
H         -8.85669        5.78175        5.18739
H         -8.10431        6.34338        6.68179
H          2.72666        7.98853        5.71957
H          1.60603        9.14400        6.44073
H          1.92408        7.60800        7.24783
H         -4.73870       -4.47337       -0.43653
H         -6.01619       -3.28871       -0.14012
H         -5.06846       -3.21461       -1.62699
H          4.21680        1.07635       -1.33841
H          4.94281        1.19965        0.26890
H          4.73512       -0.38004       -0.48758
                                                   
  eps=4.57494                                      
  epsinf=4.57494                                   
  RSolv=7.71                                       
                                                   
