%mem=800MW
%nprocshared=64
#p wB97XD/6-31g** opt td=(triplet,nstates=2,root=1) pop=esp scf=(MaxCycle=20000) nosymm iop(3/107=0002300000,3/108=0002300000) SCRF=(PCM,Solvent=Generic,Read)

IT-2Cl

0  1
C         -0.47309        6.89456        3.40418
C         -1.57554        6.34837        4.07718
C         -1.54569        6.34612        5.48152
C         -0.46501        6.88769        6.18018
C          0.63277        7.45050        5.50923
C          0.60579        7.43772        4.10641
C         -2.73039        5.65764        3.30451
C         -2.81020        6.08532        1.83250
C         -2.50542        4.98977        0.98497
C         -2.19640        3.83174        1.72923
C         -2.34470        4.16432        3.12511
S         -2.60001        5.36523       -0.72665
C         -3.05373        7.01894       -0.31060
C         -3.12274        7.22676        1.10112
C         -3.35121        8.13669       -1.06512
C         -3.66356        9.27546       -0.26516
S         -3.55699        8.88358        1.46596
C         -2.12447        3.21911        4.09577
C         -1.73665        1.91330        3.68341
C         -1.56744        1.58687        2.28833
C         -1.79921        2.52876        1.31726
C         -1.45357        0.74742        4.42608
C         -1.06668       -0.32423        3.58142
C         -1.08849        0.12036        2.11240
S         -1.49063        0.33256        6.13077
C         -0.98595       -1.30685        5.71513
C         -0.80661       -1.48130        4.30879
S         -0.31160       -3.12015        3.94227
C         -0.33281       -3.55117        5.66699
C         -0.72748       -2.43721        6.46566
C         -4.03290       10.49496       -0.87814
C         -4.35760       11.77142       -0.41593
C         -4.22912       12.26876        0.98294
C         -4.44921       13.73723        0.93399
C         -4.74273       14.11837       -0.38849
C         -4.76438       12.89628       -1.24805
C         -4.38154       14.65771        1.97410
C         -4.60319       16.00922        1.69158
C         -4.88519       16.38901        0.37333
C         -4.96406       15.46775       -0.68089
H         -4.55520       16.75211        2.47640
Cl        -5.15278       18.09406        0.01842
O         -3.97367       11.61703        1.98812
C         -5.17991       12.87119       -2.58095
C         -5.52333       14.03624       -3.33830
N         -5.81182       14.93572       -4.02410
C         -4.12995        5.85340        3.94522
C         -4.47557        7.05934        4.57667
C         -5.75660        7.26119        5.09360
C         -6.74894        6.27214        4.99664
C         -6.40595        5.07636        4.34756
C         -5.12489        4.87127        3.82843
C          0.32214        0.17029        1.46801
C          0.47327        0.25931        0.07450
C          1.73442        0.40617       -0.50637
C          2.89783        0.47261        0.27729
C          2.74218        0.38981        1.66929
C          1.48141        0.24593        2.25383
C         -2.10801       -0.76969        1.35364
C         -1.70236       -1.94375        0.69950
C         -2.63335       -2.79166        0.09535
C         -4.00803       -2.50834        0.12451
C         -4.41097       -1.33948        0.78914
C         -3.48259       -0.48870        1.39377
C          0.00879       -4.78018        6.27758
C          0.39367       -6.03771        5.80961
C          0.38525       -6.50019        4.39281
C          0.61432       -7.96779        4.42399
C          0.80831       -8.37921        5.75573
C          0.75587       -7.17762        6.64219
C          1.01543       -9.73395        6.03278
C          1.02460      -10.62985        4.95398
C          0.84191      -10.21983        3.62725
C          0.63348       -8.86316        3.36022
C          4.27187        0.60405       -0.35522
C         -5.01401       -3.42210       -0.55241
O          0.20886       -5.82550        3.38594
C          1.08346       -7.17748        7.99930
C          1.39752       -8.35473        8.75052
N          1.65779       -9.26618        9.43175
Cl         1.27642      -12.34147        5.28821
H          0.85837      -10.94425        2.82406
C         -8.12786        6.48496        5.59513
C          1.78747        8.07649        6.27074
C          1.20750       -6.00236        8.80867
N          1.34837       -5.09490        9.52955
C         -5.37145       11.68174       -3.35542
N         -5.57027       10.76260       -4.04730
H         -4.16040       14.33565        2.98376
H         -5.18067       15.82202       -1.67508
H         -4.04040       10.38605       -1.95404
H         -3.36104        8.17261       -2.14494
H         -2.24080        3.44814        5.14527
H         -1.68385        2.29973        0.26762
H         -0.80374       -2.49962        7.54155
H         -0.07412       -4.70099        7.35304
H          1.15779      -10.11100        7.03199
H          0.48678       -8.51754        2.34480
H         -4.91289        3.93340        3.33082
H         -0.48341        6.87119        7.26542
H         -2.37158        5.92835        6.04347
H          1.43632        7.85642        3.54715
H         -0.43985        6.89834        2.32200
H         -7.14536        4.28871        4.24274
H         -5.98038        8.20552        5.57948
H         -3.74242        7.84851        4.68071
H         -0.39327        0.20857       -0.57289
H          1.80854        0.46983       -1.58742
H          1.41387        0.19963        3.33325
H          3.61388        0.44003        2.31409
H         -3.84576        0.39608        1.90145
H         -5.46502       -1.08602        0.84319
H         -2.27680       -3.68887       -0.40031
H         -0.65359       -2.20571        0.65063
H         -8.49268        7.49796        5.40644
H         -8.85676        5.78174        5.18718
H         -8.10445        6.34380        6.68147
H          2.72667        7.98805        5.71978
H          1.60614        9.14368        6.44082
H          1.92395        7.60768        7.24801
H         -4.73886       -4.47337       -0.43659
H         -6.01637       -3.28879       -0.13997
H         -5.06881       -3.21453       -1.62693
H          4.21667        1.07647       -1.33838
H          4.94277        1.19923        0.26893
H          4.73482       -0.38022       -0.48798
                                                   
  eps=4.57494                                      
  epsinf=4.57494                                   
  RSolv=7.71                                       
  

