%mem=1000MW
%nprocshared=40
%Oldchk=IEICO-4Cl-TDDFT-S1toT1-Triplet.chk
%chk=IEICO-4Cl-NTO-T2.chk
#p wB97XD/6-31g** Geom=AllCheck Guess=(Read,Only) Density=(Check,Transition=2) Pop=(Minimal,NTO,SaveNTO)

0 1
