%mem=1000MW
%nprocshared=40
#p wB97XD/6-31g** nosymm pop=esp opt td=(nstates=2,root=1) scf=(MaxCycle=20000) iop(3/107=0016000000,3/108=0016000000) SCRF=(PCM,Solvent=Generic,Read)

 Y6 opt-TDdft

0 1
C         -0.02927        0.38320        0.05197
C          0.07319        0.17170        1.43257
C          1.28458        0.45218        2.09171
C          2.41206        0.91789        1.42050
C          2.30165        1.11992        0.05082
C          1.09150        0.86153       -0.61773
C         -0.89905       -0.34808        2.42484
C         -0.30097       -0.15952        3.75689
C          1.13237        0.20008        3.54780
C         -1.01076       -0.11495        4.93565
C         -0.65581        0.04659        6.31050
S          0.98155       -0.08127        6.97883
C          0.35755        0.05258        8.58753
C         -1.03781        0.23437        8.59380
C         -1.63229        0.23297        7.31965
S         -1.71865        0.43224       10.21768
C         -0.11106        0.27135       10.87989
C          0.88509        0.08434        9.89820
N          2.11649       -0.06068       10.50027
C          1.91774        0.06555       11.87586
C          0.51401        0.22862       12.13070
C          2.83501        0.08836       12.95342
C          2.35094       -0.01569       14.30857
C          0.93741        0.04086       14.57704
C          0.01592        0.23353       13.48111
N          4.22572        0.16620       12.97279
C          4.62309        0.03972       14.28898
C          3.47596       -0.07794       15.12465
C          5.82105        0.02903       15.00747
C          5.59057       -0.10767       16.39703
S          3.87317       -0.21597       16.81910
C          6.75225       -0.14680       17.19234
C          7.89854       -0.01948       16.39555
S          7.52959        0.09893       14.67469
N         -1.25251        0.33752       13.85836
S         -1.26850        0.19192       15.50661
N          0.35373       -0.00536       15.76792
C          9.30319       -0.11252       16.81500
C         10.11778        0.94452       17.14926
C         11.50387        0.95823       17.55551
C         11.87884        2.36261       17.81454
C         10.77067        3.20750       17.57359
C          9.62415        2.37090       17.15058
C         10.81616        4.58667       17.73036
C         12.01898        5.15302       18.14492
C         13.12799        4.33502       18.38970
C         13.08251        2.94958       18.23327
F         14.27887        4.90996       18.78990
F         12.12570        6.48939       18.31451
C         12.37336       -0.16334       17.68783
C         13.73250       -0.07195       18.09033
N         14.85765       -0.05791       18.41669
O          8.50095        2.76157       16.86256
C          6.77611       -0.29256       18.69179
C          5.08817        0.79016       11.95497
C          3.24589       -0.72484        9.82883
C         -3.11443        0.40263        7.08520
O          2.01067        0.30443        4.39139
C         -2.07764       -1.00610        2.12852
C         -2.59863       -1.14981        0.80127
N         -3.07685       -1.29337       -0.25179
F          3.34512        1.57384       -0.65515
F          1.02710        1.08757       -1.93634
C         11.98801       -1.50497       17.42698
N         11.72687       -2.62990       17.22566
C         -2.87569       -1.69434        3.10119
N         -3.55349       -2.29912        3.83141
H         13.97874        2.38664       18.44182
H          9.95193        5.20941       17.53967
H          9.69151       -1.12310       16.83248
H          7.79993       -0.35048       19.05698
H          6.24937       -1.19854       19.00304
H          6.29132        0.56233       19.17076
H          5.66470        1.58634       12.42333
H          4.46826        1.24193       11.18768
H          5.76490        0.06205       11.51137
H          2.85974       -1.51294        9.18430
H          3.88245       -1.19416       10.57182
H          3.82280       -0.01975        9.23260
H         -3.32058        1.07560        6.25218
H         -3.59689        0.82475        7.96628
H         -3.58895       -0.55914        6.87792
H         -2.08391       -0.19454        4.81719
H          3.34198        1.12084        1.93415
H         -0.93067        0.21243       -0.51550

  eps=3.36
  epsinf=3.36
  RSolv=7.28

