%mem=1000MW
%nprocshared=40
#p wB97XD/6-31g** nosymm pop=esp opt td=(triplet,nstates=2,root=1) scf=(MaxCycle=20000) iop(3/107=0016000000,3/108=0016000000) SCRF=(PCM,Solvent=Generic,Read)

 Y6 opt-TDdft

0 1
C         -0.02947        0.38321        0.05183
C          0.07304        0.17170        1.43242
C          1.28450        0.45206        2.09150
C          2.41199        0.91766        1.42023
C          2.30152        1.11970        0.05056
C          1.09131        0.86143       -0.61793
C         -0.89919       -0.34799        2.42475
C         -0.30101       -0.15955        3.75676
C          1.13234        0.19999        3.54760
C         -1.01075       -0.11502        4.93556
C         -0.65579        0.04645        6.31042
S          0.98156       -0.08144        6.97877
C          0.35754        0.05232        8.58748
C         -1.03782        0.23405        8.59374
C         -1.63229        0.23272        7.31957
S         -1.71870        0.43170       10.21763
C         -0.11109        0.27102       10.87984
C          0.88509        0.08412        9.89815
N          2.11650       -0.06079       10.50022
C          1.91774        0.06544       11.87581
C          0.51400        0.22838       12.13065
C          2.83501        0.08838       12.95337
C          2.35097       -0.01569       14.30852
C          0.93743        0.04071       14.57700
C          0.01591        0.23327       13.48107
N          4.22571        0.16641       12.97273
C          4.62311        0.03999       14.28891
C          3.47600       -0.07776       15.12460
C          5.82106        0.02951       15.00740
C          5.59062       -0.10722       16.39697
S          3.87323       -0.21561       16.81905
C          6.75229       -0.14639       17.19224
C          7.89858       -0.01907       16.39544
S          7.52958        0.09973       14.67460
N         -1.25253        0.33714       13.85832
S         -1.26849        0.19153       15.50656
N          0.35376       -0.00552       15.76788
C          9.30324       -0.11224       16.81487
C         10.11788        0.94468       17.14938
C         11.50394        0.95822       17.55568
C         11.87900        2.36254       17.81489
C         10.77091        3.20755       17.57403
C          9.62429        2.37108       17.15102
C         10.81652        4.58671       17.73093
C         12.01939        5.15290       18.14554
C         13.12833        4.33477       18.39025
C         13.08273        2.94935       18.23368
F         14.27926        4.90957       18.79050
F         12.12624        6.48924       18.31528
C         12.37331       -0.16344       17.68784
C         13.73246       -0.07223       18.09037
N         14.85762       -0.05814       18.41670
O          8.50118        2.76188       16.86282
C          6.77619       -0.29224       18.69169
C          5.08807        0.79049       11.95490
C          3.24596       -0.72485        9.82879
C         -3.11444        0.40229        7.08512
O          2.01074        0.30416        4.39112
C         -2.07787       -1.00588        2.12848
C         -2.59897       -1.14946        0.80125
N         -3.07734       -1.29296       -0.25174
F          3.34500        1.57352       -0.65547
F          1.02686        1.08750       -1.93653
C         11.98779       -1.50500       17.42685
N         11.72622       -2.62986       17.22568
C         -2.87594       -1.69406        3.10119
N         -3.55387       -2.29871        3.83137
H         13.97891        2.38630       18.44216
H          9.95233        5.20953       17.54033
H          9.69155       -1.12283       16.83215
H          7.80001       -0.35018       19.05685
H          6.24946       -1.19825       19.00289
H          6.29141        0.56261       19.17075
H          5.66452        1.58671       12.42327
H          4.46810        1.24221       11.18764
H          5.76487        0.06246       11.51127
H          2.85986       -1.51296        9.18422
H          3.88253       -1.19415       10.57178
H          3.82283       -0.01970        9.23258
H         -3.32062        1.07527        6.25211
H         -3.59693        0.82437        7.96621
H         -3.58890       -0.55949        6.87782
H         -2.08390       -0.19458        4.81712
H          3.34195        1.12052        1.93383
H         -0.93092        0.21252       -0.51559

  eps=3.36
  epsinf=3.36
  RSolv=7.28

