%mem=1000MW
%nprocshared=40
%Oldchk=Y6-TDDFT-S-scan-90.chk
%chk=Y6-NTO-S1-scan-90.chk
#p wB97XD/6-31g** Geom=AllCheck Guess=(Read,Only) Density=(Check,Transition=1) Pop=(Minimal,NTO,SaveNTO)

0 1
