%mem=800MW
%nprocshared=32
%chk=Y6-HSO-scan-140-S1fromT1.chk
%rwf=Y6-HSO-scan-140-S1fromT1.rwf
#p wB97XD/6-31g** td(50-50,nstates=5) 6D 10F nosymm GFInput scf=(MaxCycle=20000) iop(3/107=0016000000,3/108=0016000000) SCRF=(PCM,Solvent=Generic,Read)

 HSO

0 1
C               0.1968900000      0.8784100000      0.1932200000
C               0.2561300000      0.5722200000      1.5586900000
C               1.4509700000      0.7928700000      2.2686300000
C               2.6024100000      1.2887500000      1.6630700000
C               2.5348400000      1.5841000000      0.3077100000
C               1.3417700000      1.3866500000     -0.4104300000
C              -0.7493400000     -0.0028700000      2.4858500000
C              -0.1847800000      0.0793400000      3.8432300000
C               1.2549800000      0.4436700000      3.6987800000
C              -0.9210600000      0.0296500000      5.0062700000
C              -0.5984800000      0.0867400000      6.3971200000
S               1.0259700000     -0.0567500000      7.0937200000
C               0.3635000000     -0.0506300000      8.6924500000
C              -1.0357500000      0.0985000000      8.6793000000
C              -1.6011200000      0.1784600000      7.3946000000
S              -1.7559800000      0.1577600000     10.2973400000
C              -0.1598800000     -0.0183500000     10.9830000000
C               0.8616400000     -0.1057700000     10.0137300000
N               2.0824800000     -0.2678700000     10.6319500000
C               1.8513900000     -0.2573500000     12.0079600000
C               0.4383900000     -0.1472600000     12.2408000000
C               2.7430400000     -0.3015100000     13.1068400000
C               2.2294400000     -0.5282600000     14.4360200000
C               0.8090300000     -0.5288900000     14.6725600000
C              -0.0910600000     -0.2655700000     13.5738700000
N               4.1301000000     -0.1848900000     13.1704900000
C               4.4981800000     -0.4026900000     14.4832300000
C               3.3351500000     -0.6226300000     15.2748200000
C               5.6767100000     -0.4245700000     15.2331300000
C               5.4155800000     -0.6701500000     16.6021800000
S               3.6931600000     -0.8749000000     16.9648100000
C               6.5552700000     -0.7139400000     17.4280900000
C               7.7153200000     -0.4762600000     16.6781700000
S               7.3889100000     -0.2553300000     14.9585100000
N              -1.3699900000     -0.2211000000     13.9265100000
S              -1.4206600000     -0.5049900000     15.5562800000
N               0.1995800000     -0.6875900000     15.8405800000
C               9.1109100000     -0.5182300000     17.1348000000
C               9.8370900000      0.5580200000     17.5897700000
C              11.2032700000      0.6320800000     18.0528100000
C              11.4743300000      2.0366300000     18.4193200000
C              10.3160900000      2.8197100000     18.2065400000
C               9.2440100000      1.9420100000     17.6848800000
C              10.2603200000      4.1836700000     18.4614300000
C              11.4100500000      4.7987300000     18.9499700000
C              12.5683400000      4.0432300000     19.1656200000
C              12.6248400000      2.6729100000     18.9099000000
F              13.6660600000      4.6663500000     19.6364200000
F              11.4192800000      6.1231900000     19.2174000000
C              12.1372600000     -0.4397100000     18.1525400000
C              13.4649000000     -0.2951000000     18.6364600000
N              14.5681200000     -0.2373400000     19.0266800000
O               8.1042300000      2.2758500000     17.3901000000
C               6.5427400000     -0.9561900000     18.9151200000
C               4.9987300000      0.5384000000     12.2261800000
C               3.2487400000     -0.8310900000      9.9335000000
C              -3.0800100000      0.3387300000      7.1341300000
O               2.1105300000      0.4835000000      4.5710700000
C              -1.9295200000     -0.6154600000      2.1086200000
C              -2.4171900000     -0.6450000000      0.7613300000
N              -2.8720400000     -0.6973300000     -0.3104000000
F               3.6040500000      2.0696100000     -0.3359800000
F               1.3176200000      1.7021700000     -1.7119700000
C              11.8488300000     -1.7817000000     17.7884400000
N              11.6667700000     -2.9040000000     17.5030000000
C              -2.7658600000     -1.3637600000      3.0009300000
N              -3.4749200000     -2.0128600000      3.6599100000
H              13.5546500000      2.1595800000     19.0988000000
H               9.3587900000      4.7571700000     18.2902300000
H               9.5695700000     -1.4969900000     17.0735000000
H               7.5569200000     -1.0317500000     19.3034800000
H               6.0141000000     -1.8824200000     19.1545900000
H               6.0403600000     -0.1352200000     19.4339000000
H               5.5959500000      1.2580400000     12.7830500000
H               4.3835900000      1.0963400000     11.5270900000
H               5.6588000000     -0.1417400000     11.6910700000
H               2.9025400000     -1.5586600000      9.2013600000
H               3.8746300000     -1.3607800000     10.6441200000
H               3.8219900000     -0.0540100000      9.4304600000
H              -3.2768200000      1.1116200000      6.3897500000
H              -3.6041000000      0.6261700000      8.0448700000
H              -3.5197800000     -0.5968700000      6.7823700000
H              -1.9908300000     -0.0475300000      4.8591100000
H               3.5190500000      1.4451500000      2.2154100000
H              -0.6883900000      0.7588400000     -0.4114300000

  eps=3.36
  epsinf=3.36
  RSolv=7.28
 
