%mem=800MW
%nprocshared=64
%chk=IT-2Cl-HSO-w-00023-S1paraT1.chk
%rwf=IT-2Cl-HSO-w-00023-S1paraT1.rwf
#p wB97XD/6-31g** td(50-50,nstates=5) 6D 10F nosymm GFInput scf=(MaxCycle=20000) iop(3/107=0002300000,3/108=0002300000) SCRF=(PCM,Solvent=Generic,Read)

IT-2Cl

0  1
C              -0.4688600000      6.8856100000      3.4015000000
C              -1.5722800000      6.3443000000      4.0771200000
C              -1.5420300000      6.3458700000      5.4814700000
C              -0.4597900000      6.8870400000      6.1778200000
C               0.6388600000      7.4455700000      5.5045000000
C               0.6112600000      7.4286800000      4.1016800000
C              -2.7296400000      5.6552900000      3.3066500000
C              -2.8131600000      6.0804900000      1.8354900000
C              -2.5144400000      4.9932100000      0.9900800000
C              -2.1992400000      3.8295000000      1.7360200000
C              -2.3439300000      4.1634900000      3.1281700000
S              -2.6156700000      5.3635600000     -0.7171500000
C              -3.0670900000      7.0159500000     -0.3033800000
C              -3.1303700000      7.2284400000      1.1012900000
C              -3.3695200000      8.1377100000     -1.0633600000
C              -3.6740900000      9.2702500000     -0.2675500000
S              -3.5615100000      8.8822900000      1.4641400000
C              -2.1199800000      3.2168200000      4.1003500000
C              -1.7336500000      1.9168900000      3.6855300000
C              -1.5671000000      1.5897000000      2.2940200000
C              -1.8028700000      2.5328600000      1.3215100000
C              -1.4467100000      0.7440400000      4.4292400000
C              -1.0605700000     -0.3170500000      3.5857300000
C              -1.0868800000      0.1255800000      2.1178600000
S              -1.4827100000      0.3300800000      6.1292100000
C              -0.9748300000     -1.3061600000      5.7140000000
C              -0.7948800000     -1.4811000000      4.3144600000
S              -0.2960500000     -3.1140400000      3.9467300000
C              -0.3215200000     -3.5475900000      5.6707900000
C              -0.7141000000     -2.4429000000      6.4676800000
C              -4.0463100000     10.4960000000     -0.8836700000
C              -4.3629000000     11.7702200000     -0.4250700000
C              -4.2357200000     12.2663200000      0.9744300000
C              -4.4499000000     13.7349700000      0.9255400000
C              -4.7404100000     14.1169700000     -0.3989900000
C              -4.7629000000     12.8999500000     -1.2593100000
C              -4.3820200000     14.6541800000      1.9662100000
C              -4.6003000000     16.0071100000      1.6848900000
C              -4.8802000000     16.3878100000      0.3663400000
C              -4.9594700000     15.4683200000     -0.6891700000
H              -4.5517600000     16.7493400000      2.4703100000
Cl             -5.1447800000     18.0941100000      0.0130200000
O              -3.9852000000     11.6125900000      1.9800700000
C              -5.1690100000     12.8774100000     -2.5973200000
C              -5.5000600000     14.0437600000     -3.3564900000
N              -5.7783100000     14.9460100000     -4.0438600000
C              -4.1288200000      5.8508900000      3.9478700000
C              -4.4730000000      7.0559100000      4.5818300000
C              -5.7537300000      7.2572800000      5.0992700000
C              -6.7468200000      6.2689000000      5.0004100000
C              -6.4051200000      5.0743000000      4.3483300000
C              -5.1246100000      4.8697200000      3.8280900000
C               0.3211000000      0.1807700000      1.4684100000
C               0.4673800000      0.2635800000      0.0740000000
C               1.7261900000      0.4137800000     -0.5108700000
C               2.8913800000      0.4898000000      0.2694900000
C               2.7401000000      0.4136300000      1.6624600000
C               1.4818300000      0.2667900000      2.2512400000
C              -2.1084200000     -0.7675300000      1.3657300000
C              -1.7028300000     -1.9395400000      0.7079600000
C              -2.6353700000     -2.7906300000      0.1110000000
C              -4.0110500000     -2.5127300000      0.1514100000
C              -4.4135600000     -1.3458500000      0.8199100000
C              -3.4839000000     -0.4920300000      1.4178600000
C               0.0161900000     -4.7863900000      6.2813900000
C               0.3981800000     -6.0391300000      5.8131400000
C               0.4157100000     -6.4888400000      4.3922200000
C               0.6414000000     -7.9562400000      4.4142800000
C               0.8088800000     -8.3798800000      5.7473800000
C               0.7399000000     -7.1909100000      6.6436500000
C               1.0114900000     -9.7386500000      6.0134700000
C               1.0419200000    -10.6229400000      4.9256400000
C               0.8846400000    -10.2005000000      3.5994600000
C               0.6814800000     -8.8405400000      3.3424400000
C               4.2629700000      0.6240900000     -0.3674400000
C              -5.0185300000     -3.4308300000     -0.5169700000
O               0.2602800000     -5.8043600000      3.3880100000
C               1.0328600000     -7.2053200000      8.0107300000
C               1.3200100000     -8.3906100000      8.7582600000
N               1.5565100000     -9.3109500000      9.4372200000
Cl              1.2885800000    -12.3382100000      5.2471400000
H               0.9165000000    -10.9170800000      2.7897200000
C              -8.1253200000      6.4818000000      5.5994300000
C               1.7949700000      8.0714900000      6.2636500000
C               1.1404800000     -6.0396200000      8.8338700000
N               1.2644600000     -5.1378500000      9.5659800000
C              -5.3595500000     11.6902100000     -3.3734200000
N              -5.5549900000     10.7704200000     -4.0665400000
H              -4.1635400000     14.3304900000      2.9759900000
H              -5.1751000000     15.8237800000     -1.6831500000
H              -4.0625900000     10.3813400000     -1.9589300000
H              -3.3845700000      8.1684800000     -2.1432800000
H              -2.2341400000      3.4461500000      5.1498400000
H              -1.6900100000      2.3034400000      0.2718600000
H              -0.7919500000     -2.5044400000      7.5435000000
H              -0.0705200000     -4.7076600000      7.3566300000
H               1.1355700000    -10.1260800000      7.0111100000
H               0.5548300000     -8.4840900000      2.3279800000
H              -4.9139500000      3.9332700000      3.3271300000
H              -0.4776800000      6.8740000000      7.2630600000
H              -2.3686300000      5.9320100000      6.0451900000
H               1.4422700000      7.8441000000      3.5408100000
H              -0.4356100000      6.8862300000      2.3193100000
H              -7.1452100000      4.2876400000      4.2416200000
H              -5.9769700000      8.2007400000      5.5869400000
H              -3.7394300000      7.8445200000      4.6867500000
H              -0.4008000000      0.2049200000     -0.5705100000
H               1.7971900000      0.4720900000     -1.5923900000
H               1.4173800000      0.2261900000      3.3311000000
H               3.6133700000      0.4713100000      2.3043800000
H              -3.8469400000      0.3901200000      1.9303000000
H              -5.4681300000     -1.0970100000      0.8830300000
H              -2.2794500000     -3.6863900000     -0.3875800000
H              -0.6535400000     -2.1976700000      0.6515300000
H              -8.4909300000      7.4941300000      5.4088300000
H              -8.8539400000      5.7770800000      5.1937100000
H              -8.1005400000      6.3431300000      6.6860200000
H               2.7331900000      7.9825200000      5.7112000000
H               1.6138900000      9.1387800000      6.4331600000
H               1.9327000000      7.6033600000      7.2410300000
H              -4.7386700000     -4.4808800000     -0.4017000000
H              -6.0184000000     -3.3003800000     -0.0977600000
H              -5.0813800000     -3.2248300000     -1.5913300000
H               4.2035600000      1.0957700000     -1.3506900000
H               4.9345900000      1.2208100000      0.2543600000
H               4.7272200000     -0.3594100000     -0.5010900000
                                                   
  eps=4.57494                                      
  epsinf=4.57494                                   
  RSolv=7.71                                       
  

