%mem=800MW
%nprocshared=64
%chk=IT-2Cl-HSO-w-00023-T1paraS1.chk
%rwf=IT-2Cl-HSO-w-00023-T1paraS1.rwf
#p wB97XD/6-31g** td(50-50,nstates=5) 6D 10F nosymm GFInput scf=(MaxCycle=20000) iop(3/107=0002300000,3/108=0002300000) SCRF=(PCM,Solvent=Generic,Read)

IT-2Cl

0  1
C              -0.4731300000      6.8947200000      3.4041500000
C              -1.5754900000      6.3484200000      4.0771900000
C              -1.5455800000      6.3462100000      5.4815400000
C              -0.4649100000      6.8878600000      6.1801400000
C               0.6328000000      7.4507400000      5.5091300000
C               0.6057400000      7.4379800000      4.1063200000
C              -2.7303600000      5.6576400000      3.3045900000
C              -2.8102600000      6.0853000000      1.8325700000
C              -2.5054800000      4.9897500000      0.9850600000
C              -2.1963800000      3.8317400000      1.7293100000
C              -2.3446400000      4.1643300000      3.1252000000
S              -2.6002100000      5.3651600000     -0.7265500000
C              -3.0539000000      7.0188900000     -0.3105300000
C              -3.1228700000      7.2267200000      1.1011900000
C              -3.3514300000      8.1366200000     -1.0650600000
C              -3.6637200000      9.2754100000     -0.2651200000
S              -3.5570800000      8.8835600000      1.4660100000
C              -2.1243900000      3.2191100000      4.0958500000
C              -1.7365500000      1.9133100000      3.6834600000
C              -1.5673500000      1.5869000000      2.2883800000
C              -1.7991700000      2.5287800000      1.3173200000
C              -1.4534600000      0.7474200000      4.4261200000
C              -1.0665700000     -0.3242200000      3.5814500000
C              -1.0883600000      0.1204100000      2.1124400000
S              -1.4905600000      0.3325300000      6.1307900000
C              -0.9859300000     -1.3069100000      5.7151300000
C              -0.8065800000     -1.4813200000      4.3087900000
S              -0.3116100000     -3.1201700000      3.9422400000
C              -0.3328500000     -3.5512400000      5.6669400000
C              -0.7274900000     -2.4372900000      6.4656300000
C              -4.0331200000     10.4948900000     -0.8781300000
C              -4.3577700000     11.7713900000     -0.4159600000
C              -4.2291500000     12.2688000000      0.9828600000
C              -4.4491400000     13.7372800000      0.9338400000
C              -4.7427500000     14.1183600000     -0.3886400000
C              -4.7646000000     12.8962000000     -1.2481200000
C              -4.3813100000     14.6578200000      1.9738800000
C              -4.6028800000     16.0093200000      1.6913000000
C              -4.8849700000     16.3890600000      0.3730600000
C              -4.9640000000     15.4677400000     -0.6811000000
H              -4.5547700000     16.7522700000      2.4760800000
Cl             -5.1524600000     18.0941100000      0.0180700000
O              -3.9736800000     11.6171200000      1.9880700000
C              -5.1802900000     12.8710300000     -2.5809800000
C              -5.5236700000     14.0360400000     -3.3384200000
N              -5.8121200000     14.9354000000     -4.0243900000
C              -4.1298900000      5.8533700000      3.9453600000
C              -4.4754700000      7.0592400000      4.5769600000
C              -5.7564700000      7.2610600000      5.0939700000
C              -6.7488400000      6.2720400000      4.9969300000
C              -6.4059100000      5.0763300000      4.3476700000
C              -5.1248700000      4.8712900000      3.8284700000
C               0.3222800000      0.1703700000      1.4680800000
C               0.4734400000      0.2591600000      0.0745600000
C               1.7345900000      0.4060300000     -0.5063000000
C               2.8979700000      0.4727400000      0.2773800000
C               2.7422900000      0.3901700000      1.6693900000
C               1.4815200000      0.2462700000      2.2539200000
C              -2.1078600000     -0.7696600000      1.3536600000
C              -1.7021900000     -1.9437700000      0.6996300000
C              -2.6331600000     -2.7916900000      0.0954500000
C              -4.0078400000     -2.5083300000      0.1244900000
C              -4.4107900000     -1.3394200000      0.7890300000
C              -3.4824300000     -0.4886400000      1.3936900000
C               0.0086600000     -4.7802900000      6.2775200000
C               0.3935400000     -6.0378300000      5.8095400000
C               0.3853200000     -6.5002300000      4.3927200000
C               0.6143200000     -7.9678400000      4.4238500000
C               0.8080800000     -8.3793500000      5.7556000000
C               0.7555800000     -7.1777800000      6.6421200000
C               1.0151400000     -9.7341200000      6.0325900000
C               1.0244600000    -10.6299400000      4.9537300000
C               0.8419800000    -10.2198300000      3.6270000000
C               0.6336300000     -8.8631300000      3.3600300000
C               4.2720200000      0.6042000000     -0.3551100000
C              -5.0137800000     -3.4220900000     -0.5524500000
O               0.2091100000     -5.8255000000      3.3858500000
C               1.0829600000     -7.1777000000      7.9993000000
C               1.3966800000     -8.3549800000      8.7506100000
N               1.6566100000     -9.2663800000      9.4320300000
Cl              1.2761900000    -12.3415900000      5.2878900000
H               0.8585400000    -10.9442000000      2.8237600000
C              -8.1277300000      6.4848200000      5.5955000000
C               1.7874800000      8.0768400000      6.2705900000
C               1.2070900000     -6.0025900000      8.8086600000
N               1.3481000000     -5.0951600000      9.5295400000
C              -5.3720400000     11.6815400000     -3.3553200000
N              -5.5711800000     10.7623800000     -4.0470900000
H              -4.1601100000     14.3358100000      2.9835400000
H              -5.1806800000     15.8219700000     -1.6752800000
H              -4.0407100000     10.3859200000     -1.9540200000
H              -3.3613400000      8.1725400000     -2.1448800000
H              -2.2407000000      3.4481300000      5.1453500000
H              -1.6838200000      2.2997700000      0.2676800000
H              -0.8037600000     -2.4997700000      7.5415200000
H              -0.0743000000     -4.7011400000      7.3529700000
H               1.1573300000    -10.1112500000      7.0317900000
H               0.4870900000     -8.5174400000      2.3446100000
H              -4.9129100000      3.9334900000      3.3307200000
H              -0.4832600000      6.8713700000      7.2653900000
H              -2.3714200000      5.9284000000      6.0435300000
H               1.4362000000      7.8567500000      3.5470100000
H              -0.4399600000      6.8985400000      2.3219600000
H              -7.1453400000      4.2887200000      4.2427600000
H              -5.9802000000      8.2053300000      5.5799900000
H              -3.7422900000      7.8483800000      4.6810900000
H              -0.3930600000      0.2081900000     -0.5728700000
H               1.8087400000      0.4695000000     -1.5873600000
H               1.4139500000      0.2001500000      3.3333300000
H               3.6139600000      0.4405800000      2.3142100000
H              -3.8456300000      0.3961800000      1.9013000000
H              -5.4648400000     -1.0859400000      0.8429900000
H              -2.2765900000     -3.6889400000     -0.4001200000
H              -0.6534200000     -2.2057500000      0.6508600000
H              -8.4924800000      7.4978900000      5.4070700000
H              -8.8566900000      5.7817500000      5.1873900000
H              -8.1043100000      6.3433800000      6.6817900000
H               2.7266600000      7.9885300000      5.7195700000
H               1.6060300000      9.1440000000      6.4407300000
H               1.9240800000      7.6080000000      7.2478300000
H              -4.7387000000     -4.4733700000     -0.4365300000
H              -6.0161900000     -3.2887100000     -0.1401200000
H              -5.0684600000     -3.2146100000     -1.6269900000
H               4.2168000000      1.0763500000     -1.3384100000
H               4.9428100000      1.1996500000      0.2689000000
H               4.7351200000     -0.3800400000     -0.4875800000
                                                   
  eps=4.57494                                      
  epsinf=4.57494                                   
  RSolv=7.71                                       
  

