%mem=800MW
%nprocshared=64
%chk=IT-2Cl-HSO-w-00023-T2paraS1.chk
%rwf=IT-2Cl-HSO-w-00023-T2paraS1.rwf
#p wB97XD/6-31g** td(50-50,nstates=5) 6D 10F nosymm GFInput scf=(MaxCycle=20000) iop(3/107=0002300000,3/108=0002300000) SCRF=(PCM,Solvent=Generic,Read)

IT-2Cl

0  1
C              -0.4742200000      6.8897400000      3.4031500000
C              -1.5788700000      6.3394700000      4.0693700000
C              -1.5529900000      6.3292000000      5.4738100000
C              -0.4739000000      6.8655700000      6.1792300000
C               0.6262300000      7.4313800000      5.5150600000
C               0.6030400000      7.4274300000      4.1120100000
C              -2.7334400000      5.6544100000      3.2903800000
C              -2.8081100000      6.0852500000      1.8182000000
C              -2.5132500000      5.0105100000      0.9759400000
C              -2.2029400000      3.8231600000      1.7359400000
C              -2.3520800000      4.1609800000      3.1098300000
S              -2.6083600000      5.3760800000     -0.7287500000
C              -3.0555700000      7.0311300000     -0.3206700000
C              -3.1218800000      7.2403800000      1.0818500000
C              -3.3496400000      8.1536700000     -1.0808400000
C              -3.6542400000      9.2925100000     -0.2811700000
S              -3.5462300000      8.8974400000      1.4487800000
C              -2.1287100000      3.2073300000      4.0914800000
C              -1.7474500000      1.9178200000      3.6796100000
C              -1.5797900000      1.5856100000      2.3063000000
C              -1.8111000000      2.5369200000      1.3244500000
C              -1.4523000000      0.7253800000      4.4382500000
C              -1.0696500000     -0.3236200000      3.5985900000
C              -1.0996900000      0.1206900000      2.1289300000
S              -1.4944200000      0.3177400000      6.1355900000
C              -0.9852500000     -1.3199300000      5.7274700000
C              -0.8036300000     -1.4932400000      4.3303800000
S              -0.3058000000     -3.1285800000      3.9603900000
C              -0.3300700000     -3.5657500000      5.6831300000
C              -0.7263000000     -2.4547900000      6.4824900000
C              -4.0197000000     10.5147400000     -0.8948600000
C              -4.3407400000     11.7938300000     -0.4313700000
C              -4.1972300000     12.2916800000      0.9732300000
C              -4.4245200000     13.7569900000      0.9287600000
C              -4.7367100000     14.1353400000     -0.3915600000
C              -4.7523200000     12.9177700000     -1.2526700000
C              -4.3567000000     14.6761100000      1.9698600000
C              -4.5978700000     16.0257800000      1.6932700000
C              -4.9017000000     16.4024500000      0.3790500000
C              -4.9812700000     15.4826600000     -0.6766800000
H              -4.5497200000     16.7680100000      2.4785900000
Cl             -5.1988900000     18.1039600000      0.0302600000
O              -3.9295900000     11.6345300000      1.9701000000
C              -5.1637600000     12.8917800000     -2.5957000000
C              -5.4798800000     14.0577800000     -3.3594800000
N              -5.7439300000     14.9613200000     -4.0509900000
C              -4.1328500000      5.8532800000      3.9309200000
C              -4.4765200000      7.0618700000      4.5582500000
C              -5.7568500000      7.2673600000      5.0758100000
C              -6.7503600000      6.2791100000      4.9840000000
C              -6.4091800000      5.0801900000      4.3397400000
C              -5.1287700000      4.8714500000      3.8202700000
C               0.3070900000      0.1732400000      1.4756100000
C               0.4493700000      0.2612100000      0.0810700000
C               1.7065500000      0.4096300000     -0.5083400000
C               2.8747900000      0.4787200000      0.2675600000
C               2.7281800000      0.3965200000      1.6607400000
C               1.4716500000      0.2506900000      2.2536400000
C              -2.1206500000     -0.7705900000      1.3730800000
C              -1.7158500000     -1.9477400000      0.7241200000
C              -2.6470900000     -2.7973200000      0.1224000000
C              -4.0213900000     -2.5122900000      0.1486000000
C              -4.4235200000     -1.3397800000      0.8072900000
C              -3.4948300000     -0.4872900000      1.4091500000
C               0.0090300000     -4.7976300000      6.2931100000
C               0.3994000000     -6.0549900000      5.8227000000
C               0.3948400000     -6.5116000000      4.3968000000
C               0.6383100000     -7.9746500000      4.4199900000
C               0.8374400000     -8.3885300000      5.7515100000
C               0.7628500000     -7.1958200000      6.6438800000
C               1.0709600000     -9.7414100000      6.0188000000
C               1.0965300000    -10.6301300000      4.9339700000
C               0.9057300000    -10.2177300000      3.6092500000
C               0.6740800000     -8.8628900000      3.3509300000
C               4.2447000000      0.6117700000     -0.3736100000
C              -5.0279300000     -3.4276400000     -0.5254900000
O               0.2145500000     -5.8282100000      3.3980900000
C               1.0694000000     -7.2000500000      8.0146500000
C               1.3529600000     -8.3807600000      8.7684500000
N               1.5848400000     -9.2986200000      9.4525800000
Cl              1.3818600000    -12.3384100000      5.2592400000
H               0.9348400000    -10.9372800000      2.8021500000
C              -8.1284300000      6.4954800000      5.5833900000
C               1.7794000000      8.0519900000      6.2833600000
C               1.1957600000     -6.0289700000      8.8257200000
N               1.3373300000     -5.1232700000      9.5498800000
C              -5.3739000000     11.7033200000     -3.3628600000
N              -5.5874600000     10.7831100000     -4.0501600000
H              -4.1212900000     14.3544500000      2.9764800000
H              -5.2179900000     15.8360800000     -1.6666100000
H              -4.0308600000     10.4060000000     -1.9705900000
H              -3.3608900000      8.1878100000     -2.1606400000
H              -2.2447400000      3.4407900000      5.1400800000
H              -1.6942900000      2.3038700000      0.2758000000
H              -0.8050600000     -2.5176800000      7.5581100000
H              -0.0785400000     -4.7217800000      7.3682300000
H               1.2227200000    -10.1229200000      7.0148500000
H               0.5230500000     -8.5131500000      2.3375100000
H              -4.9178800000      3.9313700000      3.3263700000
H              -0.4957100000      6.8424000000      7.2643100000
H              -2.3813000000      5.9092600000      6.0306100000
H               1.4353500000      7.8494000000      3.5578400000
H              -0.4377300000      6.9007100000      2.3211900000
H              -7.1494100000      4.2927100000      4.2394300000
H              -5.9789800000      8.2138500000      5.5583100000
H              -3.7420800000      7.8503500000      4.6588000000
H              -0.4213700000      0.2075800000     -0.5604600000
H               1.7734000000      0.4723700000     -1.5899700000
H               1.4111100000      0.2048100000      3.3334500000
H               3.6041500000      0.4482600000      2.2996400000
H              -3.8571800000      0.4003900000      1.9123500000
H              -5.4773200000     -1.0845000000      0.8584500000
H              -2.2909200000     -3.6970900000     -0.3689200000
H              -0.6672300000     -2.2109300000      0.6774100000
H              -8.4910200000      7.5092700000      5.3946800000
H              -8.8592800000      5.7939000000      5.1760400000
H              -8.1048500000      6.3544600000      6.6697700000
H               2.7209900000      7.9609800000      5.7368400000
H               1.6012400000      9.1196000000      6.4542400000
H               1.9095300000      7.5811300000      7.2605000000
H              -4.7510300000     -4.4785300000     -0.4104100000
H              -6.0293200000     -3.2957900000     -0.1101100000
H              -5.0863900000     -3.2202700000     -1.5998600000
H               4.1826000000      1.0826600000     -1.3571200000
H               4.9182400000      1.2092000000      0.2455600000
H               4.7088400000     -0.3717600000     -0.5077800000
                                                   
  eps=4.57494                                      
  epsinf=4.57494                                   
  RSolv=7.71                                       
  

