%mem=1000MW
%nprocshared=64
#p wB97XD/6-31g** nosymm pop=esp opt td=(triplet,nstates=2,root=1) scf=(MaxCycle=20000) iop(3/107=0001100000,3/108=0001100000) SCRF=(PCM,Solvent=Generic,Read)

 IT-4Cl opt-TDdft

0 1
C          0.57335       -0.27487        0.05246
C          0.46272       -0.15992        1.44557
C          1.64833       -0.19094        2.19908
C          2.89242       -0.31906        1.57967
C          3.00769       -0.42645        0.18357
C          1.82122       -0.40157       -0.56459
C         -0.92268       -0.13671        2.14506
C         -2.06453        0.29612        1.21503
C         -2.94999       -0.78917        0.98345
C         -2.52402       -1.95306        1.65665
C         -1.33291       -1.61265        2.39600
S         -4.31660       -0.38858       -0.04130
C         -3.70697        1.26294       -0.16771
C         -2.49504        1.44918        0.57206
C         -4.17618        2.38462       -0.82631
C         -3.33904        3.51370       -0.62299
S         -1.94921        3.10034        0.42215
C         -0.69676       -2.55333        3.16764
C         -1.23847       -3.86787        3.20168
C         -2.41683       -4.21454        2.44631
C         -3.06221       -3.27041        1.68649
C         -0.81687       -5.03145        3.88281
C         -1.64017       -6.14022        3.57129
C         -2.75978       -5.72023        2.60843
S          0.47715       -5.39490        5.00955
C         -0.08448       -7.06620        5.07085
C         -1.22743       -7.28793        4.24458
S         -1.73624       -8.95978        4.31842
C         -0.43203       -9.34283        5.46477
C          0.35404       -8.18930        5.74699
C         -3.45986        4.85982       -1.02838
C         -4.29303        5.48172       -1.96935
C         -5.00954        4.83427       -3.11083
C         -5.41964        5.94434       -4.01958
C         -5.04766        7.17687       -3.45747
C         -4.41491        6.92148       -2.13195
C         -6.05926        5.84758       -5.24586
C         -6.33266        7.02720       -5.95150
C         -5.95823        8.27114       -5.40572
C         -5.31905        8.35301       -4.15780
Cl        -7.13307        6.90633       -7.50272
Cl        -6.27232        9.76717       -6.25802
O         -5.20585        3.64494       -3.32192
C         -4.10355        7.90234       -1.18797
C         -4.18956        9.30871       -1.43639
N         -4.22531       10.46766       -1.57163
C         -0.97687        0.74461        3.42029
C         -0.26221        1.95209        3.49340
C         -0.36865        2.78685        4.60662
C         -1.19725        2.45694        5.69237
C         -1.92142        1.25875        5.60905
C         -1.81838        0.42069        4.49459
C         -2.64053       -6.37965        1.20902
C         -3.72643       -6.38098        0.31809
C         -3.59879       -6.89804       -0.97283
C         -2.38296       -7.42999       -1.43171
C         -1.29650       -7.41373       -0.54345
C         -1.42021       -6.89521        0.74780
C         -4.11922       -5.96622        3.31548
C         -4.79981       -7.18505        3.17010
C         -5.98021       -7.44042        3.87270
C         -6.52515       -6.49491        4.75494
C         -5.83355       -5.28245        4.90933
C         -4.65399       -5.02339        4.20814
C         -0.14411      -10.57391        6.09905
C         -0.66020      -11.86711        6.01584
C         -1.64738      -12.36953        5.02208
C         -1.65179      -13.85348        5.14882
C         -0.77844      -14.23539        6.18152
C         -0.21399      -13.00597        6.81091
C         -0.58937      -15.59381        6.44194
C         -1.28452      -16.53968        5.67176
C         -2.17230      -16.13829        4.65306
C         -2.35651      -14.77480        4.38901
C         -2.25396       -8.03012       -2.82039
C         -7.82506       -6.75970        5.49352
O         -2.31910      -11.71883        4.23223
C          0.52227      -12.98653        7.99505
C          0.93952      -14.16084        8.69948
N          1.31933      -15.07004        9.32501
Cl        -1.00811      -18.23250        6.01847
Cl        -3.05525      -17.30269        3.69197
C         -1.28579        3.36340        6.90722
C          4.36593       -0.54260       -0.48540
C          0.90076      -11.79712        8.69811
N          1.22779      -10.87832        9.33947
C         -3.73149        7.62888        0.16814
N         -3.45116        7.49288        1.29313
H         -6.33903        4.88520       -5.65207
H         -5.04877        9.32737       -3.78483
H         -2.76195        5.52493       -0.53531
H         -5.06934        2.43318       -1.42487
H          0.19294       -2.31416        3.73226
H         -3.95033       -3.50966        1.11949
H          1.19409       -8.21647        6.42596
H          0.68798      -10.46160        6.78141
H          0.08263      -15.95083        7.20497
H         -3.03060      -14.45052        3.60820
H         -2.40359       -0.49006        4.47591
H          3.78503       -0.33613        2.19726
H          1.61027       -0.10883        3.27813
H          1.86340       -0.48646       -1.64580
H         -0.31354       -0.27410       -0.56883
H         -2.57992        0.96772        6.42124
H          0.20344        3.70899        4.62611
H          0.39645        2.24562        2.68639
H         -4.68660       -5.98704        0.62725
H         -4.46384       -6.88669       -1.62851
H         -0.54922       -6.89600        1.39094
H         -0.33664       -7.81103       -0.85788
H         -4.15417       -4.07637        4.36835
H         -6.21482       -4.52637        5.58848
H         -6.47670       -8.39462        3.72878
H         -4.42055       -7.94577        2.50047
H         -1.50710        4.39429        6.61601
H         -2.06246        3.03534        7.60044
H         -0.33613        3.37748        7.45251
H          4.28838       -1.00475       -1.47179
H          4.82062        0.44548       -0.61843
H          5.05539       -1.14091        0.11540
H         -7.98802       -7.82854        5.64778
H         -7.83643       -6.27108        6.47060
H         -8.67950       -6.37495        4.92533
H         -2.98871       -7.60956       -3.51057
H         -1.25948       -7.85972       -3.23981
H         -2.41468       -9.11366       -2.78893

  eps=4.88617
  epsinf=4.88617
  RSolv=8.36
 
